region box block 0 52.794504272175 0 54.794296100667 0 45.195295323908
units metal
dimension 3
boundary p p p
atom_style full
create_box 1 box
Created orthogonal box = (0 0 0) to (52.794504 54.794296 45.195295)
  2 by 4 by 2 MPI processor grid
create_atoms 1 random 1620 40 box
Created 1620 atoms
  using lattice units in orthogonal box = (0 0 0) to (52.794504 54.794296 45.195295)
  create_atoms CPU = 0.003 seconds
mass 1 40.078
pair_style hybrid/overlay lj/cut 25 gauss/cut 25 gauss/cut 25
pair_coeff 1 1 lj/cut 0.009507177838705264 3.7584971993521488
pair_coeff 1 1 gauss/cut 1 -0.0597999248039827 5.991246456844763 0.601172550524922
pair_coeff 1 1 gauss/cut 2 0.0726183915985775 5.919659952808235 0.9307156951487607
run 1
WARNING: No fixes with time integration, atoms won't move (src/verlet.cpp:60)
Generated 0 of 0 mixed pair_coeff terms from geometric mixing rule
Neighbor list info ...
  update every 1 steps, delay 10 steps, check yes
  max neighbors/atom: 2000, page size: 100000
  master list distance cutoff = 27
  ghost atom cutoff = 27
  binsize = 13.5, bins = 4 5 4
  3 neighbor lists, perpetual/occasional/extra = 3 0 0
  (1) pair lj/cut, perpetual
      attributes: half, newton on
      pair build: half/bin/newton
      stencil: half/bin/3d
      bin: standard
  (2) pair gauss/cut, perpetual, copy from (1)
      attributes: half, newton on
      pair build: copy
      stencil: none
      bin: none
  (3) pair gauss/cut, perpetual, copy from (1)
      attributes: half, newton on
      pair build: copy
      stencil: none
      bin: none
Per MPI rank memory allocation (min/avg/max) = 6.988 | 6.996 | 7.006 Mbytes
   Step          Temp          E_pair         E_mol          TotEng         Press     
         0   0              7.2404436e+10  0              7.2404436e+10  3.5491037e+12
         1   0              7.2404436e+10  0              7.2404436e+10  3.5491037e+12
Loop time of 0.010512 on 16 procs for 1 steps with 1620 atoms

Performance: 8.219 ns/day, 2.920 hours/ns, 95.130 timesteps/s
99.2% CPU use with 16 MPI tasks x 1 OpenMP threads

MPI task timing breakdown:
Section |  min time  |  avg time  |  max time  |%varavg| %total
---------------------------------------------------------------
Pair    | 0.0062838  | 0.0086513  | 0.010101   |   1.1 | 82.30
Bond    | 7.17e-07   | 9.6869e-07 | 1.179e-06  |   0.0 |  0.01
Neigh   | 0          | 0          | 0          |   0.0 |  0.00
Comm    | 0.00029454 | 0.0017451  | 0.0041308  |   2.5 | 16.60
Output  | 7.4986e-05 | 7.711e-05  | 7.8496e-05 |   0.0 |  0.73
Modify  | 1.331e-06  | 1.6233e-06 | 2.108e-06  |   0.0 |  0.02
Other   |            | 3.592e-05  |            |       |  0.34

Nlocal:         101.25 ave         122 max          82 min
Histogram: 1 0 3 1 4 2 2 1 0 2
Nghost:        5043.38 ave        5175 max        4933 min
Histogram: 1 2 2 2 3 1 3 1 0 1
Neighs:        51668.8 ave       67744 max       43218 min
Histogram: 3 2 2 4 2 0 2 0 0 1

Total # of neighbors = 826700
Ave neighs/atom = 510.30864
Ave special neighs/atom = 0
Neighbor list builds = 0
Dangerous builds = 0
thermo 1000
neighbor 2.0 bin
neigh_modify every 1 delay 0 check yes one 200000 page 2000000000
minimize 0.0 1.0e-8 100 1000
Generated 0 of 0 mixed pair_coeff terms from geometric mixing rule
Neighbor list info ...
  update every 1 steps, delay 0 steps, check yes
  max neighbors/atom: 200000, page size: 2000000000
  master list distance cutoff = 27
  ghost atom cutoff = 27
  binsize = 13.5, bins = 4 5 4
  3 neighbor lists, perpetual/occasional/extra = 3 0 0
  (1) pair lj/cut, perpetual
      attributes: half, newton on
      pair build: half/bin/newton
      stencil: half/bin/3d
      bin: standard
  (2) pair gauss/cut, perpetual, copy from (1)
      attributes: half, newton on
      pair build: copy
      stencil: none
      bin: none
  (3) pair gauss/cut, perpetual, copy from (1)
      attributes: half, newton on
      pair build: copy
      stencil: none
      bin: none
Per MPI rank memory allocation (min/avg/max) = 2.29e+04 | 2.29e+04 | 2.29e+04 Mbytes
   Step          Temp          E_pair         E_mol          TotEng         Press     
         1   0              7.2404436e+10  0              7.2404436e+10  3.5491037e+12
       101   0             -50.834836      0             -50.834836      645.01167    
Loop time of 1.04955 on 16 procs for 100 steps with 1620 atoms

99.8% CPU use with 16 MPI tasks x 1 OpenMP threads

Minimization stats:
  Stopping criterion = max iterations
  Energy initial, next-to-last, final = 
      72404436133.8494  -50.6115796091847   -50.834836466049
  Force two-norm initial, final = 1.5129772e+12 0.4688687
  Force max component initial, final = 5.8215581e+11 0.051695967
  Final line search alpha, max atom move = 1 0.051695967
  Iterations, force evaluations = 100 111

MPI task timing breakdown:
Section |  min time  |  avg time  |  max time  |%varavg| %total
---------------------------------------------------------------
Pair    | 0.67662    | 0.80672    | 1.0047     |   8.5 | 76.86
Bond    | 8.8689e-05 | 9.2435e-05 | 9.7351e-05 |   0.0 |  0.01
Neigh   | 0.0097993  | 0.011209   | 0.012808   |   0.8 |  1.07
Comm    | 0.027591   | 0.22712    | 0.35865    |  16.2 | 21.64
Output  | 4.2913e-05 | 4.4923e-05 | 4.702e-05  |   0.0 |  0.00
Modify  | 0          | 0          | 0          |   0.0 |  0.00
Other   |            | 0.004364   |            |       |  0.42

Nlocal:         101.25 ave         114 max          89 min
Histogram: 1 0 3 3 1 3 1 2 1 1
Nghost:        5049.94 ave        5136 max        4954 min
Histogram: 1 1 2 3 0 2 1 2 2 2
Neighs:        51666.2 ave       59784 max       46527 min
Histogram: 4 1 1 4 1 1 1 2 0 1

Total # of neighbors = 826660
Ave neighs/atom = 510.28395
Ave special neighs/atom = 0
Neighbor list builds = 7
Dangerous builds = 0
timestep 0.0005
fix 1 all nvt temp 300.0 300.0 $(100.0*dt)
fix 1 all nvt temp 300.0 300.0 0.050000000000000002776
fix removeMomentum all momentum 1 linear 1 1 1
dump 1 all custom 1000 ljg2_nvt_40/ca.traj id mol type mass x y z
dump_modify 1 sort id
run 2000000
Generated 0 of 0 mixed pair_coeff terms from geometric mixing rule
Per MPI rank memory allocation (min/avg/max) = 2.289e+04 | 2.289e+04 | 2.289e+04 Mbytes
   Step          Temp          E_pair         E_mol          TotEng         Press     
       101   0             -50.834836      0             -50.834836      645.01167    
      1000   161.64806     -46.462321      0             -12.63388       1130.0105    
      2000   290.09277     -10.294025      0              50.414319      1913.6677    
      3000   297.89661     -7.1212924      0              55.220179      2047.3594    
      4000   297.4947      -8.1688563      0              54.088506      1953.0143    
      5000   300.864       -4.1956233      0              58.766839      2100.0578    
      6000   303.47818     -3.696765       0              59.812773      2143.6616    
      7000   299.13866     -4.9535707      0              57.647827      2139.1209    
      8000   299.35593     -5.5067013      0              57.140165      2085.9785    
      9000   294.20885     -5.3562212      0              56.213504      2023.0835    
     10000   297.19025     -4.906593       0              57.287057      2004.2601    
     11000   295.87164     -5.1862676      0              56.731434      2090.8684    
     12000   291.96827     -4.4281974      0              56.672638      2030.5027    
     13000   304.9151      -5.77149        0              58.038756      2059.9995    
     14000   300.39831     -4.045697       0              58.81931       2202.8004    
     15000   304.79641     -2.4438205      0              61.341587      2193.0413    
     16000   290.90158     -2.580876       0              58.296731      2143.5582    
     17000   292.71502     -4.3233417      0              56.933767      2081.3725    
     18000   308.06667     -5.5151202      0              58.954661      2013.4095    
     19000   297.60883     -4.0011739      0              58.280072      2134.5956    
     20000   303.73411     -4.3415211      0              59.221576      2084.0914    
     21000   303.98929     -5.1991804      0              58.41732       2143.4403    
     22000   295.63272     -3.8630117      0              58.00469       2006.8171    
     23000   308.92321     -4.2249326      0              60.424098      2169.2199    
     24000   301.47087     -4.5089843      0              58.58048       2067.1794    
     25000   299.2417      -5.2507901      0              57.372172      2099.3816    
     26000   303.83177     -4.8151757      0              58.768359      2034.0078    
     27000   286.43492     -4.6058204      0              55.337038      2101.7687    
     28000   296.22724     -5.5532709      0              56.438848      2014.4365    
     29000   304.22468     -3.1879883      0              60.477771      2085.8888    
     30000   296.08686     -3.7791425      0              58.183598      2100.7742    
     31000   291.63714     -5.5420383      0              55.489501      2093.2406    
     32000   308.05423     -4.2248642      0              60.242313      2198.9566    
     33000   295.03027     -5.0443939      0              56.697233      2003.8746    
     34000   298.56016     -5.9780667      0              56.502268      2034.2082    
     35000   295.91505     -5.7689689      0              56.157818      2124.2291    
     36000   299.67758     -4.7085917      0              58.005586      2109.6358    
     37000   297.78755     -5.5775406      0              56.741108      2092.0615    
     38000   311.46236     -4.9541355      0              60.226269      2092.4385    
     39000   301.84949     -4.9045887      0              58.26411       2149.943     
     40000   290.93786     -3.9191563      0              56.966042      2088.2165    
     41000   294.35195     -4.2788474      0              57.320826      2074.1251    
     42000   311.6859      -6.2679198      0              58.959267      2022.1858    
     43000   301.61467     -3.2988219      0              59.820736      2125.4007    
     44000   307.28892     -4.0039195      0              60.303102      2088.8074    
     45000   299.12794     -5.1958273      0              57.403326      2076.3451    
     46000   290.52797     -3.4039647      0              57.395455      2110.4726    
     47000   304.95633     -5.0435387      0              58.775337      2102.6693    
     48000   302.82845     -3.8209521      0              59.552615      2074.4323    
     49000   297.82132     -4.9395127      0              57.386203      2091.2827    
     50000   308.89243     -4.9224798      0              59.720111      2025.7571    
     51000   312.67821     -4.7264055      0              60.708444      2069.691     
     52000   303.70224     -6.0270033      0              57.529425      2072.9027    
     53000   310.24414     -5.126922       0              59.798544      2033.0991    
     54000   301.601       -5.4722487      0              57.644449      2028.7262    
     55000   297.20774     -5.0197924      0              57.177517      2135.7432    
     56000   291.67962     -4.7825839      0              56.257845      2042.7709    
     57000   304.57577     -3.7375919      0              60.001641      2219.8869    
     58000   313.08598     -5.1354176      0              60.384767      2175.873     
     59000   295.01292     -3.8772071      0              57.860789      2140.6262    
     60000   296.39356     -4.1650032      0              57.861921      2087.4461    
     61000   295.56961     -5.8379105      0              56.016585      2119.9001    
     62000   292.7892      -4.8017031      0              56.47093       2124.304     
     63000   298.08506     -4.542044       0              57.838865      2100.6547    
     64000   308.73162     -5.822796       0              58.786141      2021.5937    
     65000   315.36595     -4.3425878      0              61.654731      2148.4817    
     66000   300.82112     -5.0846008      0              57.86889       2137.2494    
     67000   299.04294     -4.6419464      0              57.93942       2074.2943    
     68000   304.24294     -4.9056598      0              58.763922      2010.6971    
     69000   299.214       -4.3402267      0              58.276938      2045.3796    
     70000   295.70552     -4.7428063      0              57.14013       1993.4057    
     71000   296.85557     -4.6032958      0              57.520315      1992.8698    
     72000   299.3274      -5.3004493      0              57.340447      2051.4731    
     73000   293.78065     -4.8474721      0              56.632643      2083.7607    
     74000   303.15129     -5.5070694      0              57.93406       2024.3958    
     75000   293.24365     -4.449398       0              56.918339      2064.6269    
     76000   293.65562     -4.9271626      0              56.526787      2054.163     
     77000   293.65706     -2.3635156      0              59.090736      2178.0854    
     78000   301.17298     -3.4939671      0              59.533157      2114.3175    
     79000   312.17014     -3.4319856      0              61.896539      2204.987     
     80000   303.18251     -6.1174026      0              57.33026       2071.8827    
     81000   298.34073     -3.9207532      0              58.513661      2081.0527    
     82000   310.93484     -5.7889775      0              59.281033      2116.0015    
     83000   300.90474     -4.6773395      0              58.293651      2101.4005    
     84000   290.8858      -4.0445373      0              56.829768      2168.2261    
     85000   302.29084     -2.3854342      0              60.875627      2127.8946    
     86000   301.19012     -4.0870327      0              58.94368       2034.3167    
     87000   294.18476     -5.2811044      0              56.283581      2015.1395    
     88000   305.71136     -3.6205917      0              60.35629       2089.6272    
     89000   296.45986     -4.3714535      0              57.669347      1958.0245    
     90000   303.29648     -4.0887844      0              59.38273       2115.7187    
     91000   302.46175     -5.5299676      0              57.766861      2080.714     
     92000   309.10501     -5.0252468      0              59.66183       1954.1704    
     93000   294.83346     -4.464836       0              57.235603      2074.6383    
     94000   296.86951     -4.0034358      0              58.123093      2119.2927    
     95000   306.41712     -3.8179138      0              60.306663      2255.4123    
     96000   311.45845     -5.1813336      0              59.998253      2014.6125    
     97000   291.66372     -3.3935337      0              57.643568      2150.2075    
     98000   295.30614     -5.2890717      0              56.510287      2095.7552    
     99000   308.62424     -5.9669305      0              58.619535      2016.6713    
    100000   303.49141     -4.0789922      0              59.433314      2083.8974    
    101000   306.72958     -4.1171747      0              60.072791      1985.7718    
    102000   308.83991     -5.8069273      0              58.824673      2150.3798    
    103000   304.98518     -4.6756051      0              59.149306      2140.2308    
    104000   305.28247     -5.193256       0              58.69387       2078.1786    
    105000   292.44606     -5.7304351      0              55.470387      2111.5541    
    106000   300.71157     -5.1796281      0              57.750936      2116.1832    
    107000   289.74525     -4.2264046      0              56.409213      2108.9589    
    108000   297.75975     -6.2531364      0              56.059694      2055.6135    
    109000   294.41437     -4.6458733      0              56.966861      2089.3917    
    110000   300.05882     -5.2591009      0              57.53486       1963.4644    
    111000   309.71922     -5.424509       0              59.391106      2096.825     
    112000   296.8903      -5.638267       0              56.492612      2045.095     
    113000   297.39596     -4.7432443      0              57.493454      2040.0579    
    114000   305.12869     -5.7703104      0              58.084634      2105.0963    
    115000   291.94351     -2.9143731      0              58.18128       2100.5559    
    116000   293.6586      -4.3977495      0              57.056825      2087.0245    
    117000   298.51706     -4.0519704      0              58.419344      2100.2897    
    118000   306.29692     -5.5295172      0              58.569905      2064.2871    
    119000   300.59341     -2.2146248      0              60.691211      2202.375     
    120000   296.99035     -4.4473361      0              57.704479      2147.2642    
    121000   303.55894     -6.0148273      0              57.511613      1997.5586    
    122000   298.64395     -5.7539274      0              56.743941      2055.9254    
    123000   306.70049     -5.2734078      0              58.910471      2102.4674    
    124000   305.22008     -3.4864491      0              60.387622      2174.2958    
    125000   299.12389     -5.6977608      0              56.900545      2068.7744    
    126000   303.45183     -5.538899       0              57.965125      2053.0404    
    127000   299.5374      -5.3601569      0              57.324687      2118.9788    
    128000   315.26208     -4.2097647      0              61.765817      2165.7975    
    129000   302.48113     -3.5286583      0              59.772225      2101.5288    
    130000   303.21041     -3.657544       0              59.795959      2159.1492    
    131000   283.2675      -4.557453       0              54.722553      2091.5782    
    132000   293.4749      -3.7429509      0              57.673179      2068.9486    
    133000   304.73034     -6.0794709      0              57.69211       2081.4011    
    134000   301.33516     -4.5745387      0              58.486526      2015.7298    
    135000   305.73058     -5.1515264      0              58.829377      2067.0756    
    136000   307.02336     -5.7649565      0              58.486491      2038.7812    
    137000   296.04943     -4.7105231      0              57.244384      2149.975     
    138000   308.50503     -3.9527703      0              60.608748      2107.0419    
    139000   291.6114      -5.7240856      0              55.302066      2064.898     
    140000   305.81805     -4.0261853      0              59.973023      2180.341     
    141000   296.52942     -5.834998       0              56.220358      2042.4924    
    142000   309.25628     -4.329686       0              60.389047      2023.1214    
    143000   302.15151     -4.4339818      0              58.797922      2076.0949    
    144000   306.58856     -6.9139108      0              57.246545      2004.4805    
    145000   301.27908     -4.1039611      0              58.945368      2040.3838    
    146000   310.69009     -5.1470484      0              59.871742      2213.3067    
    147000   300.55839     -4.9821379      0              57.91637       2058.0487    
    148000   299.44276     -4.9487869      0              57.716251      2033.3264    
    149000   296.368       -3.6396818      0              58.381894      2113.301     
    150000   297.67931     -4.8714783      0              57.424519      2044.8338    
    151000   305.70203     -4.2320775      0              59.74285       2141.6205    
    152000   294.95234     -4.7425694      0              56.982748      1966.2083    
    153000   308.72995     -5.7566041      0              58.851984      2079.8562    
    154000   301.75033     -4.7646903      0              58.383257      2090.8195    
    155000   307.39881     -4.9455936      0              59.384425      2089.0425    
    156000   295.04932     -3.9637683      0              57.781845      2236.6747    
    157000   302.29057     -4.4371527      0              58.823853      2062.4569    
    158000   298.08432     -3.9819327      0              58.398821      2116.5268    
    159000   303.73533     -4.2437186      0              59.319634      2187.9494    
    160000   307.88151     -5.1475424      0              59.283491      2137.6269    
    161000   306.27702     -5.6940997      0              58.401158      2103.3593    
    162000   294.22003     -4.3351045      0              57.236961      2109.8861    
    163000   296.89846     -4.4281705      0              57.704415      1982.4879    
    164000   305.57614     -5.0528065      0              58.895777      2109.0889    
    165000   298.89978     -4.4268638      0              58.124543      2150.8706    
    166000   294.02557     -3.8962835      0              57.635087      2118.6706    
    167000   296.40749     -3.7161725      0              58.313667      2113.7306    
    168000   299.00457     -3.9071341      0              58.666203      2014.8079    
    169000   309.7111      -4.0888975      0              60.725019      2150.4812    
    170000   300.16299     -3.4780728      0              59.337689      2187.3181    
    171000   305.79014     -5.4918926      0              58.501476      2068.2048    
    172000   295.4028      -4.3457747      0              57.473813      2114.3657    
    173000   297.84358     -5.0363619      0              57.294012      2067.906     
    174000   293.24167     -4.8500829      0              56.517239      1971.2024    
    175000   303.84855     -3.1874579      0              60.399589      2185.5157    
    176000   309.54358     -3.4645827      0              61.314276      2163.0884    
    177000   299.54736     -5.6462294      0              57.040699      2081.9346    
    178000   298.46609     -5.7420875      0              56.718561      2092.5313    
    179000   300.30614     -3.8321824      0              59.013537      2094.1078    
    180000   301.77355     -4.625854       0              58.526954      2057.3438    
    181000   302.59891     -4.3754642      0              58.950068      2078.3673    
    182000   293.69933     -3.9755614      0              57.487536      2117.8981    
    183000   306.41578     -4.6053072      0              59.51899       2139.3991    
    184000   307.3115      -4.4282211      0              59.883524      2093.7163    
    185000   298.94708     -4.6196305      0              57.941675      2060.4332    
    186000   295.24555     -4.6004064      0              57.186271      2082.2871    
    187000   297.86153     -5.0234515      0              57.310679      2061.2689    
    188000   299.06411     -5.5232583      0              57.062538      2094.7387    
    189000   309.66758     -5.7496221      0              59.055186      2104.5539    
    190000   294.98076     -3.4705198      0              58.260746      2094.9426    
    191000   297.9931      -4.8484165      0              57.513248      2065.3329    
    192000   307.63678     -4.3176809      0              60.062138      2067.7339    
    193000   295.07299     -4.6035145      0              57.147052      2030.6902    
    194000   306.75569     -3.3394424      0              60.855987      2044.9116    
    195000   311.00942     -3.2065198      0              61.879098      2192.6838    
    196000   307.66582     -4.2025798      0              60.183316      2095.437     
    197000   300.77961     -4.7481479      0              58.196654      2054.1784    
    198000   295.49749     -3.7808151      0              58.058587      2190.1309    
    199000   297.19043     -4.8278807      0              57.365806      2008.9058    
    200000   289.95116     -4.4847177      0              56.193993      2121.1173    
    201000   309.6823      -5.3636674      0              59.444221      2170.9537    
    202000   306.31696     -5.3149445      0              58.788672      2021.5128    
    203000   294.10585     -5.440871       0              56.1073        2138.1402    
    204000   292.57655     -4.1988818      0              57.02925       2032.0669    
    205000   305.0159      -3.7410884      0              60.090251      2189.5766    
    206000   298.89334     -3.4746231      0              59.075437      2205.2275    
    207000   303.60288     -4.6635933      0              58.872041      2065.2084    
    208000   298.30885     -4.4863002      0              57.941442      2114.198     
    209000   305.78352     -5.2227035      0              58.769279      2033.3253    
    210000   306.07739     -5.4064144      0              58.647067      2054.9923    
    211000   297.78169     -5.6240634      0              56.693358      1964.2313    
    212000   297.21689     -3.6291385      0              58.570087      2215.0119    
    213000   317.78035     -5.0012359      0              61.501349      2166.1641    
    214000   289.64807     -4.4356407      0              56.179642      2069.7613    
    215000   298.92479     -4.6846516      0              57.871988      2044.2674    
    216000   294.55671     -5.2126209      0              56.429902      2037.112     
    217000   294.29534     -5.8609714      0              55.726855      1999.223     
    218000   304.67476     -4.3102749      0              59.449674      2064.2948    
    219000   300.20335     -6.3257062      0              56.498501      1932.4397    
    220000   296.0204      -4.1846172      0              57.764215      2072.5531    
    221000   298.09571     -4.4098686      0              57.97327       2034.7532    
    222000   303.45016     -6.131981       0              57.371695      2087.3296    
    223000   300.3593      -3.9749443      0              58.8819        2210.3002    
    224000   304.91394     -2.6127984      0              61.197206      2179.5366    
    225000   301.98311     -4.3617795      0              58.834882      2069.4354    
    226000   300.19297     -2.2316344      0              60.5904        2179.916     
    227000   303.87155     -3.750716       0              59.841145      2169.8374    
    228000   304.53439     -4.9044497      0              58.826125      2128.0882    
    229000   304.23331     -6.1127208      0              57.554847      1988.6138    
    230000   288.99774     -5.2590113      0              55.220174      2098.6249    
    231000   297.4026      -2.9586629      0              59.279426      2128.8554    
    232000   302.74863     -3.6510247      0              59.705839      2084.613     
    233000   309.15033     -6.0759119      0              58.620649      1995.353     
    234000   293.85644     -4.4843055      0              57.01167       2125.1093    
    235000   293.06856     -3.9035762      0              57.427518      2174.8593    
    236000   299.91433     -5.8092837      0              56.954439      2086.7267    
    237000   304.10837     -5.0999494      0              58.541471      2027.1826    
    238000   310.34691     -4.6927237      0              60.25425       2019.8338    
    239000   297.77076     -5.6550233      0              56.660111      2140.2718    
    240000   298.82701     -4.4787035      0              58.057474      2070.072     
    241000   292.72213     -5.1212578      0              56.137339      2100.2033    
    242000   305.78597     -4.7646042      0              59.227892      2167.9835    
    243000   308.66285     -4.5240438      0              60.070501      2155.7526    
    244000   301.21491     -4.1041984      0              58.9317        2019.7808    
    245000   313.19279     -2.3516736      0              63.190863      2208.574     
    246000   299.98946     -4.6583123      0              58.121134      2040.7093    
    247000   292.81328     -3.0611029      0              58.216569      2197.3299    
    248000   296.30425     -5.8734464      0              56.134789      2017.2407    
    249000   309.66899     -2.3232475      0              62.481857      2196.1738    
    250000   302.44245     -3.6652308      0              59.627558      2213.869     
    251000   297.0859      -5.5549347      0              56.616877      2112.3349    
    252000   313.5448      -5.0489469      0              60.567255      2103.1292    
    253000   306.55348     -4.8542865      0              59.298826      2161.2334    
    254000   293.18291     -4.1892307      0              57.165794      2079.6516    
    255000   294.48572     -3.6033477      0              58.02432       2223.6143    
    256000   295.67592     -6.0690543      0              55.807688      1966.0816    
    257000   297.83963     -7.3131313      0              55.016415      1970.5854    
    258000   303.91159     -6.7438206      0              56.856419      2042.0263    
    259000   308.37711     -4.6175544      0              59.917194      2120.3645    
    260000   306.86909     -2.9404597      0              61.278702      2236.6743    
    261000   295.17242     -5.00629        0              56.765084      2161.7585    
    262000   293.36363     -2.9780989      0              58.414746      2166.2321    
    263000   287.79093     -4.6257528      0              55.600881      2086.7681    
    264000   309.92401     -4.0344646      0              60.824008      2145.7632    
    265000   303.29682     -4.1468266      0              59.324759      2187.8351    
    266000   305.77278     -3.9636779      0              60.026057      2141.3119    
    267000   299.76604     -4.61722        0              58.115472      2044.6574    
    268000   314.84591     -5.6917144      0              60.196775      2126.5413    
    269000   301.49034     -5.6217417      0              57.471798      2025.8527    
    270000   303.06883     -4.3700702      0              59.053803      2040.9898    
    271000   300.70648     -6.16019        0              56.769309      2024.8769    
    272000   288.73175     -5.593091       0              54.830431      2053.1037    
    273000   303.68111     -4.9280802      0              58.623927      2193.117     
    274000   303.31345     -4.8947621      0              58.580303      2118.2252    
    275000   295.10047     -4.4597329      0              57.296585      2028.7688    
    276000   296.88386     -4.7973002      0              57.33223       2108.319     
    277000   298.12989     -4.5931431      0              57.797147      2061.1282    
    278000   293.1697      -4.0744595      0              57.277801      2041.4602    
    279000   289.65549     -4.6639493      0              55.952886      2049.6168    
    280000   299.08987     -4.8567197      0              57.734468      2009.914     
    281000   288.75376     -5.2099804      0              55.218146      2045.3062    
    282000   310.17133     -4.2574083      0              60.65282       2147.0428    
    283000   298.66329     -5.1890674      0              57.312848      2164.1426    
    284000   298.80334     -4.681449       0              57.849776      2132.1124    
    285000   309.63096     -5.2672476      0              59.529898      2046.8299    
    286000   299.01484     -3.7818534      0              58.793632      2248.6479    
    287000   293.95741     -5.4936913      0              56.023415      1977.2656    
    288000   305.3951      -4.9252815      0              58.985416      2146.7086    
    289000   300.12661     -2.6995791      0              60.10857       2138.514     
    290000   294.11564     -3.8974159      0              57.652804      2124.8525    
    291000   303.64309     -4.6091369      0              58.934913      2040.5914    
    292000   296.05632     -3.9825384      0              57.973812      1982.7439    
    293000   296.66221     -4.0220881      0              58.061058      2058.6292    
    294000   291.55951     -4.1852832      0              56.830009      1992.4834    
    295000   292.33061     -4.0566542      0              57.120008      2174.3522    
    296000   307.88852     -4.7565728      0              59.675927      2073.0712    
    297000   301.55858     -4.7770012      0              58.330819      2108.124     
    298000   295.12485     -3.6588056      0              58.102614      2057.6611    
    299000   302.108       -5.0882154      0              58.134582      2000.8728    
    300000   299.83669     -5.4128094      0              57.334667      2071.9355    
    301000   298.64318     -5.5166052      0              56.981102      2025.872     
    302000   306.32474     -2.8520237      0              61.253221      2130.9001    
    303000   302.72226     -5.402826       0              57.948519      2045.9403    
    304000   308.08798     -4.8453209      0              59.628921      2103.9593    
    305000   303.14786     -4.3488227      0              59.091589      2087.9538    
    306000   296.71134     -5.0284242      0              57.065002      1936.2514    
    307000   298.24555     -3.6686887      0              58.745806      2040.7737    
    308000   303.36562     -4.3485609      0              59.137423      2164.7127    
    309000   300.60491     -2.824552       0              60.083692      2161.1072    
    310000   309.07224     -5.1698835      0              59.510336      2073.6646    
    311000   298.21275     -6.3672706      0              56.040361      2142.2679    
    312000   313.60978     -4.9909534      0              60.638848      2137.1815    
    313000   287.34874     -4.9196517      0              55.214444      2135.1468    
    314000   295.66608     -4.6961993      0              57.178485      1975.8854    
    315000   290.3683      -5.07355        0              55.692456      2036.1743    
    316000   302.0442      -4.7198161      0              58.48963       2090.2516    
    317000   305.42271     -3.9265808      0              59.989894      2099.1749    
    318000   303.28244     -6.2733156      0              57.19526       2030.32      
    319000   299.2229      -5.1984876      0              57.42054       2128.8315    
    320000   295.8238      -4.8815556      0              57.026134      2089.4558    
    321000   297.49835     -3.4024226      0              58.855704      2232.5101    
    322000   296.39485     -4.3411187      0              57.686077      2136.9674    
    323000   294.40604     -6.3831856      0              55.227807      2044.1512    
    324000   293.758       -6.0226801      0              55.452695      2066.7918    
    325000   300.47591     -4.8545488      0              58.026699      2097.7199    
    326000   301.12183     -5.1664514      0              57.849968      2146.6258    
    327000   307.56207     -4.7659241      0              59.59826       2161.0947    
    328000   294.38107     -4.9058972      0              56.69987       1955.1373    
    329000   301.80743     -6.6512766      0              56.50862       2022.956     
    330000   303.09375     -5.1317626      0              58.297325      2079.6524    
    331000   303.5446      -3.4011544      0              60.122284      2089.9819    
    332000   306.40295     -2.687722       0              61.433891      2195.1369    
    333000   310.91055     -3.8300284      0              61.234899      2185.8828    
    334000   289.11786     -4.3218879      0              56.182435      2061.1359    
    335000   318.67971     -4.0638223      0              62.626974      2031.0655    
    336000   294.38234     -5.4142118      0              56.19182       2043.0105    
    337000   302.231       -4.5502837      0              58.698255      2144.577     
    338000   304.85652     -4.7151433      0              59.082844      2081.7431    
    339000   301.14615     -4.8418914      0              58.179618      2014.6036    
    340000   292.19513     -4.897385       0              56.250926      2033.5445    
    341000   296.36374     -5.3962527      0              56.624432      2017.091     
    342000   299.873       -4.9903862      0              57.76469       2152.0055    
    343000   293.98243     -5.7648702      0              55.757472      2080.8035    
    344000   293.47713     -5.0086813      0              56.407916      2073.9256    
    345000   301.0815      -4.4491059      0              58.558873      2120.2277    
    346000   308.03871     -6.0005849      0              58.463346      2101.0792    
    347000   294.80713     -4.5484851      0              57.146444      2122.3048    
    348000   308.67378     -5.2320333      0              59.3648        2134.2114    
    349000   293.2413      -4.2520523      0              57.115192      2018.512     
    350000   301.19163     -4.2962033      0              58.734825      2182.9694    
    351000   297.12061     -5.1812975      0              56.997779      2011.7653    
    352000   295.55991     -5.553019       0              56.299445      2063.1848    
    353000   297.3866      -5.3456144      0              56.889126      2026.8869    
    354000   284.91705     -5.0876316      0              54.537578      2098.1015    
    355000   303.65008     -5.291192       0              58.254321      2079.341     
    356000   295.52304     -4.1485708      0              57.696178      2040.5182    
    357000   296.46226     -5.5914128      0              56.44989       2089.8085    
    358000   301.42438     -3.6210429      0              59.458693      2148.4683    
    359000   303.90461     -3.7105853      0              59.888192      2086.1851    
    360000   305.81196     -5.0837124      0              58.914221      2073.7901    
    361000   299.37062     -5.1539375      0              57.496002      2047.2784    
    362000   302.95948     -5.8434958      0              57.557493      2046.1672    
    363000   293.62392     -4.4856832      0              56.961634      2111.2899    
    364000   308.48743     -5.6596244      0              58.89821       2056.1247    
    365000   303.02001     -4.7640379      0              58.649619      2170.785     
    366000   294.08264     -5.3143368      0              56.228977      1993.2513    
    367000   297.14854     -3.3037115      0              58.881209      2247.7141    
    368000   293.8273      -5.4845971      0              56.005282      2117.884     
    369000   307.98333     -5.4277347      0              59.024607      2102.0643    
    370000   302.62826     -4.8777408      0              58.453934      2134.5963    
    371000   295.7394      -4.906013       0              56.984015      2071.8322    
    372000   307.92437     -3.4417983      0              60.998204      2165.6135    
    373000   301.68768     -5.1004886      0              58.034348      2063.245     
    374000   298.96826     -3.722324       0              58.843414      2167.689     
    375000   300.85678     -5.3342146      0              57.626738      2034.9696    
    376000   299.60458     -4.2259093      0              58.472993      2209.7691    
    377000   301.09012     -3.6945583      0              59.315226      2090.7141    
    378000   298.25333     -5.5839622      0              56.83216       2029.1672    
    379000   300.59045     -4.6315965      0              58.27362       1939.2249    
    380000   292.29188     -4.9908681      0              56.177688      2015.8242    
    381000   300.52248     -4.4596165      0              58.431377      1988.2816    
    382000   307.09577     -4.3570216      0              59.909578      2139.5112    
    383000   291.95467     -5.0045632      0              56.093425      2051.4417    
    384000   308.6854      -4.8453202      0              59.753945      2044.0723    
    385000   298.99108     -6.1078804      0              56.462634      2042.7331    
    386000   301.3761      -5.9091289      0              57.160502      2060.7737    
    387000   291.45914     -5.7471909      0              55.247097      2063.6043    
    388000   293.79908     -4.4047239      0              57.079249      2021.341     
    389000   302.32731     -5.00714        0              58.261554      1981.8658    
    390000   303.08913     -4.3994612      0              59.02866       2146.4325    
    391000   301.68157     -4.8791237      0              58.254435      2110.1597    
    392000   295.18889     -5.6100238      0              56.164797      2051.4894    
    393000   312.40624     -4.6150618      0              60.762871      2035.8913    
    394000   297.35985     -4.4278091      0              57.801334      2007.7428    
    395000   310.5193      -3.85639        0              61.126658      2160.559     
    396000   315.79885     -5.037139       0              61.050772      2125.6994    
    397000   305.21641     -3.1318623      0              60.741439      2157.8409    
    398000   289.65077     -4.6998043      0              55.916041      2101.8087    
    399000   301.81681     -3.4845216      0              59.677339      2199.6693    
    400000   306.72174     -3.4069109      0              60.781415      2140.4354    
    401000   305.98821     -3.7443437      0              60.290475      2109.9691    
    402000   307.95097     -6.9199696      0              57.525599      2024.4472    
    403000   307.88148     -4.6284511      0              59.802576      2086.341     
    404000   300.57126     -4.3193691      0              58.581833      2051.0063    
    405000   291.30608     -4.4762921      0              56.485964      2026.6077    
    406000   296.62658     -5.2447948      0              56.830894      2111.1712    
    407000   306.91269     -6.1970465      0              58.03124       2000.3376    
    408000   294.91057     -5.1772435      0              56.539333      2006.7194    
    409000   293.54964     -4.8395058      0              56.592265      2031.463     
    410000   309.52409     -4.8380789      0              59.9367        2113.0109    
    411000   302.08436     -6.4359968      0              56.781853      1999.1273    
    412000   305.63315     -6.5294321      0              57.431081      2150.9099    
    413000   304.02626     -4.5011516      0              59.123084      2111.9354    
    414000   316.82212     -5.2101752      0              61.09188       2070.597     
    415000   307.06406     -4.3947928      0              59.865172      2166.5152    
    416000   302.22461     -3.7372321      0              59.50997       2103.6284    
    417000   293.58972     -3.5105958      0              57.929562      2190.7332    
    418000   307.31146     -4.4712386      0              59.840499      2115.6258    
    419000   292.66814     -3.5829568      0              57.664342      2128.1941    
    420000   301.57044     -5.2248235      0              57.885479      2025.2712    
    421000   303.53646     -3.9297123      0              59.592023      2131.6236    
    422000   299.15017     -4.7695027      0              57.834305      2107.5368    
    423000   293.97177     -4.8176528      0              56.702458      2141.1156    
    424000   300.30739     -6.5476552      0              56.298325      2111.3207    
    425000   298.52906     -6.4659439      0              56.007881      2100.1976    
    426000   300.10597     -3.8865134      0              58.917316      2063.7519    
    427000   304.67406     -4.9316533      0              58.828149      2150.3558    
    428000   298.69301     -5.4370185      0              57.071118      2064.2951    
    429000   312.89972     -4.8938824      0              60.587323      2033.5164    
    430000   301.00907     -6.2044896      0              56.788332      2057.6012    
    431000   295.70663     -5.1736081      0              56.709561      2140.7614    
    432000   311.89099     -3.6134082      0              61.656698      2066.7968    
    433000   296.36229     -3.9100013      0              58.110379      2140.8892    
    434000   299.42409     -5.1751557      0              57.485975      2035.7855    
    435000   293.32187     -4.1745772      0              57.209528      2047.0696    
    436000   286.81294     -2.5595557      0              57.462413      2185.0576    
    437000   311.01503     -3.2005005      0              61.88629       2139.5259    
    438000   299.32919     -2.5663034      0              60.074967      2121.2294    
    439000   291.04059     -3.4756257      0              57.431072      2145.1711    
    440000   306.78872     -6.1721128      0              58.030229      2076.9797    
    441000   302.01594     -5.0765227      0              58.12701       2059.5726    
    442000   304.53283     -4.7738306      0              58.956417      2089.8311    
    443000   286.07105     -4.2879635      0              55.578747      2108.0771    
    444000   303.31297     -3.5313167      0              59.943648      2178.5211    
    445000   305.34676     -6.0051391      0              57.895441      2059.214     
    446000   296.00177     -2.8975869      0              59.047348      2126.1161    
    447000   298.14108     -5.2795151      0              57.113118      1941.6511    
    448000   299.83434     -4.4318457      0              58.315139      2083.6093    
    449000   304.28473     -5.8151043      0              57.863223      2187.5638    
    450000   312.07035     -4.7915168      0              60.516124      2139.872     
    451000   305.23506     -4.7731549      0              59.10405       2083.6194    
    452000   290.36614     -4.2153242      0              56.550229      2103.5411    
    453000   302.06988     -3.9929576      0              59.221863      2157.8584    
    454000   301.8616      -4.7953871      0              58.375846      2048.2569    
    455000   308.74558     -5.8865083      0              58.72535       2056.1393    
    456000   306.27905     -3.804876       0              60.290806      2149.7389    
    457000   298.79589     -4.5055011      0              58.024164      2016.6399    
    458000   298.72        -3.3129007      0              59.200883      2183.132     
    459000   294.89969     -3.2877877      0              58.426512      2075.9305    
    460000   302.45201     -4.1095751      0              59.185215      2034.0152    
    461000   314.14768     -3.3896456      0              62.352722      2133.0978    
    462000   303.38606     -4.288654       0              59.201606      2077.2097    
    463000   299.07013     -4.039911       0              58.547145      2115.7572    
    464000   286.61873     -6.2373319      0              53.743992      1891.2502    
    465000   303.24906     -4.9213617      0              58.540228      2115.095     
    466000   294.91059     -3.0352104      0              58.681371      2114.2732    
    467000   304.96395     -4.3941722      0              59.426297      2144.1405    
    468000   296.8033      -4.2111754      0              57.901496      2077.5738    
    469000   291.03025     -5.7064469      0              55.198087      1995.4878    
    470000   306.42068     -5.6221206      0              58.503202      2169.2822    
    471000   297.2034      -3.3261743      0              58.870228      2114.8529    
    472000   305.13774     -4.4343265      0              59.422512      2155.3783    
    473000   297.4234      -5.3448523      0              56.897589      2081.6784    
    474000   302.29502     -4.9241864      0              58.33775       2198.6527    
    475000   298.75062     -4.4366232      0              58.083568      2046.6734    
    476000   299.99117     -3.198093       0              59.581712      2166.2112    
    477000   292.89511     -3.7498783      0              57.544918      2139.4991    
    478000   292.84109     -4.6292962      0              56.654195      2139.8035    
    479000   302.0554      -3.8453539      0              59.366437      2109.6643    
    480000   287.87452     -4.5821753      0              55.661952      1976.3272    
    481000   295.93003     -4.4619925      0              57.467928      2042.2189    
    482000   287.55852     -4.6184005      0              55.559596      2068.5429    
    483000   306.88852     -4.9786133      0              59.244615      2085.1477    
    484000   304.59421     -5.1285137      0              58.614579      2096.5477    
    485000   315.13109     -3.0367129      0              62.911456      2134.9356    
    486000   302.50628     -4.6993713      0              58.606776      2050.6409    
    487000   296.72953     -4.5962366      0              57.500997      2199.6415    
    488000   295.2409      -4.150054       0              57.635652      2106.8771    
    489000   293.52804     -5.0876835      0              56.339567      2064.9478    
    490000   314.04662     -4.8596365      0              60.861583      2122.6766    
    491000   308.17853     -5.8826535      0              58.610537      2128.3091    
    492000   298.9783      -6.761692       0              55.806147      1976.2459    
    493000   300.69649     -3.845306       0              59.082102      2124.5534    
    494000   298.2705      -5.4758259      0              56.943889      2077.9469    
    495000   288.05293     -4.3356516      0              55.945812      2128.1113    
    496000   308.28544     -4.9128464      0              59.602719      2068.5167    
    497000   297.28996     -4.2239552      0              57.990561      2109.3768    
    498000   296.83251     -6.6409442      0              55.477842      2081.2768    
    499000   301.96259     -5.3839322      0              57.808435      2028.8331    
    500000   304.65323     -7.1734384      0              56.582006      1991.9566    
    501000   303.3784      -4.1343386      0              59.354318      2091.4142    
    502000   298.6386      -3.5938958      0              58.902853      2032.4971    
    503000   292.00022     -4.7067332      0              56.400788      2115.3477    
    504000   300.33865     -4.8872443      0              57.965278      2230.9608    
    505000   299.40254     -6.0779569      0              56.578663      1996.5656    
    506000   301.42677     -4.8867898      0              58.193447      2147.0001    
    507000   304.02782     -5.8160627      0              57.808501      2009.8319    
    508000   300.51893     -5.3086768      0              57.581574      2027.7113    
    509000   303.46545     -5.1060071      0              58.400868      2099.5308    
    510000   308.51369     -5.1418592      0              59.421472      2095.364     
    511000   296.05708     -2.9848033      0              58.971706      2125.0238    
    512000   295.55846     -4.6488501      0              57.203311      2042.3278    
    513000   301.6262      -3.7356598      0              59.38631       2067.1964    
    514000   303.22665     -4.6494046      0              58.807496      2021.474     
    515000   304.84477     -6.5964098      0              57.199118      2069.8951    
    516000   298.28021     -4.0814669      0              58.34028       2151.7949    
    517000   303.50581     -5.0039925      0              58.511329      2052.8319    
    518000   301.13221     -5.1660471      0              57.852545      2059.1709    
    519000   298.21163     -5.6643227      0              56.743073      2030.1096    
    520000   295.12355     -5.0935496      0              56.667597      1968.2623    
    521000   295.09174     -4.043222       0              57.711268      2096.3422    
    522000   306.26309     -4.8702235      0              59.22212       2050.7743    
    523000   294.62979     -5.4396643      0              56.218153      2042.4318    
    524000   296.91364     -6.6773737      0              55.458389      2067.689     
    525000   293.78495     -3.8273955      0              57.65362       1992.9086    
    526000   310.97452     -5.3361494      0              59.742166      2090.0372    
    527000   302.47113     -5.1088694      0              58.189922      1960.1685    
    528000   291.85397     -4.9458912      0              56.131024      2069.0772    
    529000   308.65071     -5.4977192      0              59.094287      2076.7219    
    530000   306.31518     -3.7695267      0              60.333716      2140.9118    
    531000   301.83403     -4.9797491      0              58.185714      2123.7771    
    532000   297.96126     -4.2592705      0              58.095731      2055.4183    
    533000   294.56466     -6.0363221      0              55.607865      2073.5991    
    534000   300.57983     -4.0215658      0              58.881429      2141.5213    
    535000   300.32399     -4.6785205      0              58.170934      2079.4286    
    536000   296.68845     -3.3906518      0              58.697986      2091.5572    
    537000   290.72659     -2.7307566      0              58.11023       2097.4591    
    538000   298.31755     -5.2570803      0              57.172483      2095.5727    
    539000   290.55661     -5.010603       0              55.794811      2048.2952    
    540000   293.17816     -4.367992       0              56.986039      2131.5199    
    541000   299.91852     -4.3639877      0              58.400614      2076.1405    
    542000   287.4931      -4.4384102      0              55.725895      2125.5655    
    543000   303.90421     -2.48527        0              61.113425      2145.3854    
    544000   304.99452     -5.0515171      0              58.77535       2067.9794    
    545000   304.49036     -3.6287304      0              60.09263       2111.2714    
    546000   303.19668     -3.9735241      0              59.477104      2102.5054    
    547000   302.95322     -3.7254205      0              59.674259      2079.8577    
    548000   290.10019     -5.2833165      0              55.426582      2026.7571    
    549000   294.74746     -3.8496028      0              57.83284       2116.1927    
    550000   302.48857     -5.1175232      0              58.184917      2014.6537    
    551000   296.07367     -4.2412437      0              57.718736      2209.0519    
    552000   296.24925     -3.0684038      0              58.928322      2038.2676    
    553000   300.50371     -4.951388       0              57.935676      2049.7278    
    554000   308.47073     -6.2388979      0              58.315443      2073.9118    
    555000   297.1073      -3.7147072      0              58.461584      2161.9143    
    556000   296.46947     -6.3570763      0              55.685735      2030.7255    
    557000   295.83963     -4.2585434      0              57.65246       2084.3843    
    558000   299.39987     -3.8810276      0              58.775035      2082.5452    
    559000   306.8643      -5.5800196      0              58.638139      2077.2417    
    560000   293.23935     -3.2623295      0              58.104508      2075.0079    
    561000   284.67183     -3.9062205      0              55.667672      2193.3221    
    562000   308.78583     -3.2241757      0              61.396107      2280.014     
    563000   298.02362     -4.1716416      0              58.196409      2061.9449    
    564000   300.83977     -3.933202       0              59.024192      2122.4369    
    565000   295.49657     -5.953368       0              55.885842      2036.8073    
    566000   298.9877      -6.979722       0              55.590083      2018.7825    
    567000   292.93512     -3.4943884      0              57.808781      2126.9908    
    568000   292.69383     -4.9842263      0              56.268447      1967.6113    
    569000   307.00595     -3.7639948      0              60.483808      2105.1372    
    570000   312.33906     -5.2067365      0              60.157138      2037.5303    
    571000   307.18186     -3.8741951      0              60.41042       2206.2635    
    572000   298.96217     -5.9287334      0              56.63573       2073.3436    
    573000   296.12699     -4.5237478      0              57.447392      2119.0777    
    574000   293.22098     -3.2753347      0              58.087656      2142.0643    
    575000   300.47794     -4.0048231      0              58.876848      2159.5408    
    576000   310.07039     -6.4492305      0              58.439874      2045.8272    
    577000   303.03465     -5.7330525      0              57.683669      1998.2334    
    578000   298.07894     -5.1310383      0              57.24859       2082.0254    
    579000   299.36098     -5.1519974      0              57.495927      2147.7442    
    580000   297.20373     -5.5398569      0              56.656613      2081.8279    
    581000   286.69701     -5.3494426      0              54.648264      2077.0351    
    582000   298.22239     -6.2998517      0              56.109797      2111.0615    
    583000   293.91036     -6.8256238      0              54.681636      2004.0853    
    584000   302.62141     -5.7545002      0              57.575741      2053.2404    
    585000   293.36481     -5.7550551      0              55.638037      2097.998     
    586000   299.61746     -5.2106997      0              57.490898      2057.7873    
    587000   303.11554     -4.1871462      0              59.246501      2198.9282    
    588000   305.33406     -2.9602596      0              60.937663      2225.1956    
    589000   296.3952      -6.6503031      0              55.376965      2009.7623    
    590000   295.57539     -5.8308337      0              56.024871      1988.4362    
    591000   300.84632     -3.9103155      0              59.048448      2187.8364    
    592000   300.67925     -5.0382373      0              57.885564      2022.7497    
    593000   290.76742     -4.6158807      0              56.23365       2135.6185    
    594000   307.82352     -3.3874265      0              61.031472      2126.142     
    595000   305.58494     -4.7806422      0              59.169782      2061.5587    
    596000   297.87073     -4.8433521      0              57.492703      2028.713     
    597000   294.02655     -5.2643086      0              56.267267      2172.452     
    598000   308.93558     -4.3906812      0              60.26094       2037.4864    
    599000   300.57989     -5.2660177      0              57.63699       2033.7249    
    600000   297.10002     -5.0147727      0              57.159995      2011.0825    
    601000   277.10318     -3.9066882      0              54.083296      2083.3424    
    602000   307.88118     -3.3227043      0              61.10826       2141.4583    
    603000   295.99622     -4.2004683      0              57.743303      2083.0883    
    604000   296.79954     -2.9559811      0              59.155904      2175.1706    
    605000   301.97265     -3.6853149      0              59.509158      2157.1433    
    606000   302.52217     -6.4398346      0              56.869637      2077.4818    
    607000   300.99051     -2.3716918      0              60.617247      2092.7562    
    608000   295.05092     -6.3094719      0              55.436475      1890.6841    
    609000   295.08774     -4.2574808      0              57.496171      2068.4225    
    610000   306.27737     -5.6156109      0              58.479721      2066.3913    
    611000   301.77283     -4.2949655      0              58.857691      2115.681     
    612000   307.84961     -5.0644616      0              59.359896      2115.3576    
    613000   297.40753     -5.3125255      0              56.926595      2090.3641    
    614000   304.08192     -6.5969893      0              57.038896      1983.3147    
    615000   300.17936     -3.5952203      0              59.223968      2143.2034    
    616000   297.03535     -5.13913        0              57.022104      1944.5582    
    617000   303.84239     -3.5367481      0              60.04901       2044.8166    
    618000   296.64974     -3.7666327      0              58.313903      2066.0846    
    619000   307.80559     -3.4434244      0              60.971722      2349.3158    
    620000   298.07229     -4.4837896      0              57.894446      1995.1539    
    621000   302.24143     -5.4178815      0              57.83284       2074.0712    
    622000   302.84509     -3.7861382      0              59.590912      2044.0037    
    623000   290.30343     -3.9296827      0              56.822747      2128.8862    
    624000   296.6437      -6.1628592      0              55.916414      1974.8339    
    625000   300.96587     -4.8990885      0              58.084694      2110.2131    
    626000   292.98412     -4.3158202      0              56.997603      2224.7296    
    627000   298.80114     -3.9516422      0              58.579121      2147.572     
    628000   296.09675     -4.2131813      0              57.751629      2100.6942    
    629000   310.31774     -5.8274702      0              59.113397      2006.6812    
    630000   296.7834      -6.2183005      0              55.890206      2011.4937    
    631000   304.685       -4.408246       0              59.353846      2059.4212    
    632000   304.21866     -3.7397031      0              59.924798      2106.9978    
    633000   286.21438     -4.7442201      0              55.152485      2034.2949    
    634000   299.27611     -4.6183806      0              58.011783      2048.5205    
    635000   295.23254     -3.6715324      0              58.112423      2089.5147    
    636000   294.19333     -6.1255319      0              55.440947      2002.9924    
    637000   303.1407      -6.395803       0              57.04311       1998.0118    
    638000   291.10078     -4.4119274      0              56.507367      2122.1028    
    639000   300.25519     -6.1838538      0              56.651202      2049.4829    
    640000   307.95435     -5.1911909      0              59.255086      2127.3415    
    641000   310.39273     -4.3229415      0              60.633619      2119.3944    
    642000   296.32439     -5.2407597      0              56.77169       2053.5854    
    643000   302.15345     -4.2141406      0              59.018169      2073.2968    
    644000   302.03944     -5.1282406      0              58.080211      2065.4393    
    645000   300.15224     -5.2624107      0              57.551102      2080.679     
    646000   293.0899      -5.2861982      0              56.049362      2025.1084    
    647000   293.40407     -5.1744507      0              56.226858      2069.1594    
    648000   299.71584     -4.5197495      0              58.202435      2112.3944    
    649000   289.68973     -4.9759262      0              55.648073      2096.1232    
    650000   303.30843     -3.7730842      0              59.70093       2181.7553    
    651000   301.35009     -6.3385757      0              56.725613      2089.7057    
    652000   305.45974     -6.117442       0              57.806782      1989.1721    
    653000   300.02591     -5.138169       0              57.648905      2108.254     
    654000   290.48822     -4.5373603      0              56.253741      2156.2769    
    655000   310.06213     -4.4866981      0              60.400679      2136.9499    
    656000   303.27346     -4.0318821      0              59.434815      2210.4973    
    657000   308.91673     -5.953541       0              58.694134      2107.7741    
    658000   288.56625     -4.5831252      0              55.805762      1985.5744    
    659000   299.03855     -3.6965943      0              58.883854      2104.4215    
    660000   302.33492     -5.9513714      0              57.318916      2178.3525    
    661000   302.28194     -3.9909149      0              59.268283      2041.6109    
    662000   301.57639     -5.4828332      0              57.628713      2070.9279    
    663000   306.07572     -4.7126706      0              59.340462      2213.2491    
    664000   302.82946     -4.3187877      0              59.054992      2102.9004    
    665000   306.0183      -6.3307089      0              57.710406      2017.9971    
    666000   296.29056     -4.9705432      0              57.034826      2111.501     
    667000   304.00647     -4.1986743      0              59.421421      2058.3922    
    668000   301.79544     -4.7006131      0              58.456776      2025.7813    
    669000   298.23491     -5.3438436      0              57.068425      2069.2767    
    670000   306.42987     -5.1094465      0              59.0178        1945.9182    
    671000   291.75632     -3.1272924      0              57.929188      2207.6545    
    672000   299.3684      -5.5812912      0              57.068184      2106.615     
    673000   300.93116     -5.185521       0              57.790996      2032.8472    
    674000   301.29901     -4.8686435      0              58.184856      2066.1237    
    675000   295.06227     -5.7421044      0              56.006219      2075.6516    
    676000   296.24252     -4.0880465      0              57.90727       2200.2884    
    677000   298.16573     -4.46219        0              57.935601      2073.1682    
    678000   313.16506     -4.0988059      0              61.437928      2172.2018    
    679000   292.04855     -4.7551442      0              56.362491      2187.0198    
    680000   294.65362     -5.7471625      0              55.915642      2011.4603    
    681000   288.54999     -4.6442446      0              55.741239      2058.41      
    682000   304.53941     -4.4855109      0              59.246114      2095.7644    
    683000   297.8647      -6.0551164      0              56.279677      2062.3438    
    684000   291.66466     -5.5851022      0              55.452195      2059.1867    
    685000   298.14087     -5.3663299      0              57.026259      2075.1313    
    686000   299.80948     -4.6822024      0              58.05958       2125.0375    
    687000   301.36824     -5.164067       0              57.903921      1915.7099    
    688000   294.11528     -2.7827518      0              58.767392      2177.8668    
    689000   297.61786     -4.6987902      0              57.584346      2074.2845    
    690000   290.32801     -3.2523592      0              57.505215      2161.0111    
    691000   309.05526     -3.6264297      0              61.050237      2057.5087    
    692000   296.09346     -4.8637128      0              57.10041       2191.3662    
    693000   302.54056     -5.5353931      0              57.777927      2051.9824    
    694000   290.79026     -3.7537498      0              57.10056       2119.4991    
    695000   303.40934     -4.6875187      0              58.807614      2174.3004    
    696000   304.59065     -7.2609313      0              56.481416      1975.5814    
    697000   300.25715     -3.4502816      0              59.385186      2133.7503    
    698000   286.74055     -6.0805577      0              53.926261      2038.0647    
    699000   295.49898     -5.3174292      0              56.522286      2013.1854    
    700000   292.54273     -5.6384493      0              55.582605      2090.9485    
    701000   290.31396     -4.5856192      0              56.169016      2013.8669    
    702000   296.53268     -6.4668579      0              55.58918       2065.5387    
    703000   306.15525     -4.0847041      0              59.985072      2108.5599    
    704000   294.79048     -5.4683493      0              56.223095      2051.6728    
    705000   308.44724     -4.6189251      0              59.930499      2095.8784    
    706000   296.70493     -3.7505935      0              58.341492      2100.7371    
    707000   294.17539     -5.7401734      0              55.82255       2054.049     
    708000   296.79604     -3.6747179      0              58.436435      2108.6504    
    709000   301.92018     -5.9473879      0              57.236106      2018.8847    
    710000   301.74159     -5.8404799      0              57.305638      1997.6226    
    711000   297.28936     -4.3153495      0              57.899041      2156.8614    
    712000   306.26593     -5.5089642      0              58.583973      2016.8033    
    713000   287.31497     -4.0481296      0              56.078898      1990.103     
    714000   306.94042     -5.4020343      0              58.832056      2113.0391    
    715000   301.78481     -5.4612859      0              57.693878      2049.787     
    716000   298.80111     -3.1316288      0              59.39913       2137.3169    
    717000   296.1764      -3.1883053      0              58.793174      2057.8565    
    718000   308.59963     -5.6282291      0              58.953086      2052.73      
    719000   300.33409     -5.3126987      0              57.538869      2077.6032    
    720000   300.80847     -4.3899773      0              58.560865      2008.9123    
    721000   301.48467     -3.5820978      0              59.510256      2019.3693    
    722000   290.2013      -3.5012692      0              57.229788      2160.5468    
    723000   306.062       -7.2093485      0              56.840911      2024.8915    
    724000   307.22483     -5.0845893      0              59.20902       2096.5346    
    725000   311.01989     -4.2785113      0              60.809298      2114.5327    
    726000   305.44518     -3.8735187      0              60.047659      2114.9521    
    727000   302.90139     -4.6003731      0              58.78846       2164.1515    
    728000   302.43908     -4.737983       0              58.5541        2120.0167    
    729000   293.26212     -3.0931066      0              58.278494      2037.6833    
    730000   305.21688     -2.9673946      0              60.906006      2082.374     
    731000   299.90096     -5.3162576      0              57.444668      2073.215     
    732000   313.1655      -3.2402363      0              62.296588      2099.4896    
    733000   299.53816     -4.4327687      0              58.252234      2123.7424    
    734000   306.77749     -4.5915615      0              59.60843       2017.8479    
    735000   300.62965     -4.3653706      0              58.54805       2094.1349    
    736000   296.78146     -5.2886297      0              56.819472      2041.0914    
    737000   302.31864     -6.2250862      0              57.041794      2022.1436    
    738000   284.38582     -4.74458        0              54.769459      1976.7972    
    739000   296.12528     -4.8410105      0              57.12977       2120.6108    
    740000   303.09284     -3.6676408      0              59.761258      2163.343     
    741000   295.71115     -5.4891909      0              56.394924      2055.6014    
    742000   303.41197     -4.6458084      0              58.849874      2079.203     
    743000   295.98199     -4.3823184      0              57.558476      2240.0338    
    744000   310.81854     -5.8417162      0              59.203955      2046.8867    
    745000   296.79576     -2.5925582      0              59.518536      2032.2301    
    746000   298.82145     -5.1678077      0              57.367208      2078.7355    
    747000   301.93845     -6.5530519      0              56.634264      1994.4103    
    748000   297.57665     -5.6309959      0              56.643517      2028.0972    
    749000   293.89292     -4.7957674      0              56.707844      2050.9837    
    750000   295.6237      -5.2242785      0              56.641537      2022.9649    
    751000   305.2781      -4.7063735      0              59.179839      2132.8951    
    752000   308.35507     -4.6693252      0              59.86081       2162.7272    
    753000   305.21213     -5.3731477      0              58.499259      2068.5174    
    754000   289.54388     -5.5653394      0              55.028139      2058.2052    
    755000   301.05961     -3.2118103      0              59.79159       2106.1428    
    756000   298.26839     -3.6841894      0              58.735086      2117.3816    
    757000   305.70885     -4.602786       0              59.37357       2134.1313    
    758000   295.08487     -4.1673231      0              57.58573       2074.8244    
    759000   302.49157     -6.6868247      0              56.616245      1996.8175    
    760000   292.38087     -5.2787965      0              55.908384      1962.4137    
    761000   306.02804     -4.4899958      0              59.553157      2184.1763    
    762000   298.28709     -6.2352152      0              56.187972      2076.9441    
    763000   308.55369     -4.220617       0              60.351086      2150.4829    
    764000   287.32539     -4.0101356      0              56.119073      2090.0926    
    765000   301.45431     -6.3418514      0              56.744148      2112.1623    
    766000   302.3208      -3.8414204      0              59.425912      2141.5513    
    767000   300.23848     -5.6392105      0              57.19235       2054.4965    
    768000   310.8216      -4.276985       0              60.769327      2073.9865    
    769000   292.23729     -4.2309781      0              56.926154      2128.7244    
    770000   298.56176     -4.9650042      0              57.515665      2047.1761    
    771000   304.64296     -4.2183691      0              59.534926      2122.0194    
    772000   299.19779     -4.0857787      0              58.527994      2104.1062    
    773000   308.91774     -4.2446646      0              60.403222      2135.7226    
    774000   289.82834     -4.7287602      0              55.924247      2093.8646    
    775000   299.6845      -4.6278431      0              58.087784      1988.5201    
    776000   305.48203     -4.9650488      0              58.96384       2059.1615    
    777000   296.43155     -3.5232659      0              58.511609      2177.489     
    778000   303.83847     -5.1931147      0              58.391823      2096.0039    
    779000   292.22973     -6.1754797      0              54.980071      1972.3159    
    780000   294.11778     -4.2998822      0              57.250786      2138.4699    
    781000   307.68244     -3.6430437      0              60.74633       2057.3868    
    782000   304.11176     -3.2313857      0              60.410744      2137.1272    
    783000   304.27322     -3.9150547      0              59.760863      2176.044     
    784000   295.20109     -3.9128296      0              57.864544      2137.94      
    785000   297.41433     -3.4130464      0              58.827498      2159.2391    
    786000   290.60096     -4.5754528      0              56.239243      2083.3543    
    787000   295.76037     -4.9514944      0              56.942922      2040.9653    
    788000   301.06976     -4.2306618      0              58.774862      2050.386     
    789000   295.75493     -3.6398619      0              58.253415      2161.2577    
    790000   296.53915     -4.4895851      0              57.567807      2073.7543    
    791000   299.54924     -3.9147842      0              58.772536      2173.674     
    792000   282.87376     -5.3226996      0              53.874907      1978.5068    
    793000   298.36438     -4.0293701      0              58.409992      2136.6055    
    794000   296.57207     -4.0599476      0              58.004334      2103.0745    
    795000   303.95357     -5.7759268      0              57.833097      2150.404     
    796000   304.125       -5.1170325      0              58.527867      2081.1406    
    797000   298.34107     -4.1628166      0              58.271668      1982.687     
    798000   312.79004     -2.9593192      0              62.498932      2140.9334    
    799000   294.59585     -4.4093611      0              57.241353      2130.3393    
    800000   292.79361     -5.5400955      0              55.733459      2108.233     
    801000   302.31554     -5.7957372      0              57.470494      2025.9936    
    802000   285.48662     -6.2445073      0              53.499899      2101.9367    
    803000   298.36641     -4.9487136      0              57.491074      2089.3132    
    804000   288.09182     -3.503649       0              56.785953      1985.2552    
    805000   300.2834      -3.5294548      0              59.311505      2085.2604    
    806000   304.69319     -2.5874815      0              61.176326      2139.7845    
    807000   298.52455     -5.2998429      0              57.173039      2057.6132    
    808000   299.39687     -3.6584825      0              58.996951      2068.2663    
    809000   304.28497     -4.9592592      0              58.719119      2117.3365    
    810000   302.32791     -4.4996339      0              58.769185      2187.4168    
    811000   311.58904     -5.4491816      0              59.757734      1995.1053    
    812000   296.50014     -3.8479624      0              58.201267      2135.0521    
    813000   298.66454     -3.6392161      0              58.862961      2183.1132    
    814000   296.65921     -4.3689871      0              57.713531      2041.68      
    815000   297.26705     -3.6499512      0              58.559771      2126.3718    
    816000   290.64964     -3.5421244      0              57.282758      2136.5645    
    817000   304.12451     -3.8444774      0              59.800321      2245.4974    
    818000   293.38806     -5.0638826      0              56.334075      1930.4272    
    819000   297.09831     -4.9473209      0              57.227089      2071.1469    
    820000   293.01864     -3.4345495      0              57.886098      2070.7795    
    821000   303.71579     -5.5752928      0              57.983971      2021.8388    
    822000   306.30315     -4.9851643      0              59.115563      2049.0193    
    823000   297.12555     -4.3500467      0              57.830063      2093.3831    
    824000   306.9655      -5.827914       0              58.411423      2114.7158    
    825000   297.37338     -5.8547933      0              56.377182      2010.1109    
    826000   299.55554     -4.9403013      0              57.748338      2101.4036    
    827000   298.32805     -4.4010061      0              58.030753      2104.9284    
    828000   312.96859     -5.5590343      0              59.936583      2098.2366    
    829000   296.39455     -2.3127971      0              59.714334      2156.2877    
    830000   306.80142     -4.5327216      0              59.672279      2070.1877    
    831000   299.33956     -4.033378       0              58.610062      2181.5377    
    832000   295.97522     -5.8191283      0              56.120251      2078.511     
    833000   302.42208     -4.6431572      0              58.645369      2029.9324    
    834000   289.38455     -4.5746125      0              55.985522      2033.9946    
    835000   294.52498     -4.5862641      0              57.04962       1970.6128    
    836000   312.93624     -6.4555683      0              59.033279      2016.0388    
    837000   297.5267      -4.1845796      0              58.079479      2085.478     
    838000   306.62526     -5.9306864      0              58.237448      1992.2146    
    839000   296.92821     -4.5913381      0              57.547475      2054.2529    
    840000   303.18101     -4.0916382      0              59.355711      2157.9786    
    841000   312.37902     -3.8005021      0              61.571734      2126.2543    
    842000   298.23597     -4.9418017      0              57.470689      2047.8528    
    843000   290.49377     -4.640848       0              56.151416      2026.2502    
    844000   304.74889     -4.8367813      0              58.938683      2126.9418    
    845000   305.41298     -5.328612       0              58.585826      2132.1405    
    846000   292.60029     -4.3836773      0              56.849422      2118.162     
    847000   319.51394     -4.7383042      0              62.127074      2142.0604    
    848000   299.44204     -3.5102883      0              59.154598      2188.8717    
    849000   302.08385     -4.6357497      0              58.581994      2107.8143    
    850000   305.58611     -3.4260606      0              60.524609      2167.6752    
    851000   312.86668     -4.4799209      0              60.994369      2125.3168    
    852000   300.7841      -4.5102913      0              58.435452      1959.048     
    853000   295.06547     -5.2926282      0              56.456365      2042.6675    
    854000   302.20605     -5.5334877      0              57.70983       2056.372     
    855000   293.85919     -4.2156648      0              57.280887      2027.5381    
    856000   304.56123     -4.1378011      0              59.598389      2147.4456    
    857000   303.98378     -4.9699305      0              58.645417      2085.3788    
    858000   298.76045     -4.7826491      0              57.739599      2212.4531    
    859000   305.83024     -3.8095521      0              60.192208      2184.7905    
    860000   301.94472     -5.2723202      0              57.916308      2065.2804    
    861000   301.18003     -4.8961201      0              58.132479      2029.7366    
    862000   289.74197     -4.6122539      0              56.022679      2200.326     
    863000   297.72556     -3.8207536      0              58.484922      2072.0868    
    864000   304.58405     -3.4511453      0              60.28982       2083.9109    
    865000   294.31639     -5.1147741      0              56.477457      2014.9611    
    866000   293.31601     -3.774007       0              57.608872      2133.2268    
    867000   307.22115     -4.1002101      0              60.192627      2151.2107    
    868000   301.5713      -4.149691       0              58.960791      2083.1706    
    869000   297.04558     -4.2424323      0              57.920942      2058.812     
    870000   316.21124     -5.7388944      0              60.43532       1996.5716    
    871000   297.62046     -4.7309101      0              57.55277       2074.7247    
    872000   307.93282     -5.2064076      0              59.235363      2071.2451    
    873000   307.5732      -5.1926932      0              59.173819      2144.6222    
    874000   300.71796     -5.9262218      0              57.00568       2031.6113    
    875000   298.09891     -4.2804415      0              58.103365      2086.8524    
    876000   293.39623     -3.4768365      0              57.922831      2215.9057    
    877000   304.8541      -4.1676219      0              59.629859      2146.1718    
    878000   292.4827      -5.0738246      0              56.134667      1968.2381    
    879000   292.17571     -5.6991833      0              55.445062      2057.9538    
    880000   293.68114     -3.7647133      0              57.694578      2232.5397    
    881000   303.63012     -6.6496342      0              56.891701      2044.8665    
    882000   304.90318     -3.1701235      0              60.637628      2040.5292    
    883000   304.88035     -4.614935       0              59.18804       2111.5338    
    884000   286.70989     -5.1082463      0              54.892156      2090.5715    
    885000   304.38954     -5.6349755      0              58.065285      2000.9642    
    886000   307.5629      -4.6114436      0              59.752913      2118.3648    
    887000   298.5827      -6.0649834      0              56.420068      2059.1765    
    888000   297.3093      -4.3813266      0              57.837237      2110.5942    
    889000   297.28592     -3.8102486      0              58.403423      2078.1683    
    890000   300.84505     -4.1986062      0              58.759892      2114.0235    
    891000   305.55941     -2.4369726      0              61.508109      2152.1634    
    892000   304.11421     -4.5026166      0              59.140026      2118.3807    
    893000   299.95104     -4.2570403      0              58.514367      2050.5416    
    894000   303.94646     -4.3237658      0              59.283771      2169.6541    
    895000   288.33802     -4.7233876      0              55.617737      2036.7888    
    896000   306.82863     -3.3614006      0              60.849294      2137.628     
    897000   304.26576     -3.7783887      0              59.895968      2091.579     
    898000   290.56421     -4.9892259      0              55.817779      2038.9429    
    899000   299.40079     -3.7920668      0              58.864187      2085.7719    
    900000   301.2796      -5.4679572      0              57.58148       2039.037     
    901000   305.74182     -3.047471       0              60.935785      2189.2223    
    902000   314.8434      -5.3835567      0              60.504407      2133.3052    
    903000   295.95191     -4.8443889      0              57.090111      1995.8659    
    904000   307.62181     -4.9017789      0              59.474907      2158.8208    
    905000   307.14914     -6.2148672      0              58.062902      2027.7632    
    906000   301.41782     -5.3867545      0              57.691608      2048.5645    
    907000   310.37617     -4.8147395      0              60.138357      2226.8735    
    908000   297.35421     -5.316701       0              56.911261      2114.7651    
    909000   308.545       -3.8578004      0              60.712083      2061.4058    
    910000   311.59399     -2.7585801      0              62.449372      2134.5978    
    911000   295.33013     -5.1802273      0              56.624152      2059.5239    
    912000   307.4611      -5.9936294      0              58.349424      2117.003     
    913000   298.00873     -6.8410239      0              55.523911      1970.9914    
    914000   298.33132     -4.8822264      0              57.550218      1978.4537    
    915000   298.5744      -3.3373763      0              59.145938      2237.4525    
    916000   293.63206     -2.2218342      0              59.227185      2089.6097    
    917000   296.30086     -4.6111057      0              57.39642       2007.3936    
    918000   300.26447     -6.2266314      0              56.610367      2121.7477    
    919000   290.55044     -5.5302391      0              55.273883      2017.2123    
    920000   298.61816     -4.3333172      0              58.159154      2065.6281    
    921000   297.45226     -3.8786546      0              58.369827      2134.3216    
    922000   300.98927     -5.273038       0              57.715641      2012.7219    
    923000   311.58248     -5.846873       0              59.358671      2068.4431    
    924000   307.12119     -4.7106035      0              59.561315      2235.7833    
    925000   302.4692      -4.5952971      0              58.70309       2164.6661    
    926000   303.60142     -4.0775203      0              59.457809      2028.446     
    927000   292.59431     -4.6283151      0              56.603532      2093.1259    
    928000   296.71571     -4.8114719      0              57.282871      2034.7151    
    929000   295.29581     -3.7927311      0              58.004465      2156.1875    
    930000   292.57908     -4.9439462      0              56.284714      2181.1291    
    931000   304.44902     -4.461715       0              59.250993      2061.6392    
    932000   296.64122     -5.1298889      0              56.948864      2103.2726    
    933000   303.13062     -4.4176497      0              59.019154      2084.0105    
    934000   298.27304     -5.4934925      0              56.926755      2141.892     
    935000   298.20072     -5.3939881      0              57.011126      1940.9191    
    936000   287.14358     -3.6007756      0              56.490387      2111.8342    
    937000   299.52677     -5.2147443      0              57.467874      2083.2628    
    938000   301.89006     -3.8307571      0              59.346432      2210.9008    
    939000   299.45397     -3.6606427      0              59.006741      2181.3134    
    940000   300.20938     -3.8338406      0              58.991629      2112.0121    
    941000   301.36186     -4.3804576      0              58.686195      2207.2529    
    942000   296.48906     -4.5631554      0              57.483756      2210.9501    
    943000   298.28055     -5.4437459      0              56.978074      1996.8666    
    944000   308.01609     -6.3915153      0              58.067681      2090.6161    
    945000   292.6758      -2.4384181      0              58.810484      2219.7079    
    946000   295.04945     -3.5863404      0              58.159299      2050.9495    
    947000   305.66695     -5.1768826      0              58.790704      2123.5869    
    948000   300.73075     -5.5567964      0              57.377783      2024.2943    
    949000   289.43019     -5.5130637      0              55.056621      2075.7968    
    950000   297.87063     -4.033868       0              58.302167      2164.5176    
    951000   297.02999     -4.76161        0              57.398502      2054.3045    
    952000   312.51274     -5.6147726      0              59.785448      2114.8282    
    953000   305.70631     -4.3571615      0              59.618662      2143.051     
    954000   299.58776     -4.0076435      0              58.687739      2128.4754    
    955000   296.90895     -6.0876447      0              56.047136      2068.4013    
    956000   302.58097     -4.1008833      0              59.220894      2082.2806    
    957000   301.01771     -4.5755924      0              58.419039      2041.9102    
    958000   311.34558     -4.9104647      0              60.245501      2144.1995    
    959000   293.72945     -3.952404       0              57.516996      2070.9268    
    960000   295.86835     -3.3387503      0              58.578262      2168.084     
    961000   304.4518      -3.7090496      0              60.004241      2103.0026    
    962000   316.65094     -5.6343941      0              60.631837      2108.97      
    963000   300.37355     -4.7772643      0              58.082562      2082.9516    
    964000   298.13875     -4.2528525      0              58.139293      2181.233     
    965000   303.50453     -5.3111041      0              58.203948      2238.7335    
    966000   298.94325     -4.2263989      0              58.334104      2137.2987    
    967000   299.2534      -4.2572918      0              58.368119      2191.1177    
    968000   306.91967     -3.3309162      0              60.89883       2205.6461    
    969000   308.04285     -5.199114       0              59.265683      1983.682     
    970000   292.30156     -4.4588725      0              56.711711      2071.2981    
    971000   300.35209     -4.7521973      0              58.103137      2045.2144    
    972000   303.4099      -3.8132901      0              59.68196       2253.6492    
    973000   303.11632     -4.008217       0              59.425595      2161.428     
    974000   292.83368     -6.0207762      0              55.261165      2014.4822    
    975000   313.22679     -4.1029459      0              61.446705      2083.9543    
    976000   300.67121     -5.1919783      0              57.730139      2071.6837    
    977000   303.23197     -4.6605038      0              58.79751       2107.4173    
    978000   299.13207     -2.5842594      0              60.01576       2164.35      
    979000   301.1022      -3.6691534      0              59.343159      2082.0004    
    980000   292.52962     -3.8421961      0              57.376113      2143.0138    
    981000   317.17936     -3.9077865      0              62.469029      2138.3754    
    982000   291.40548     -4.2364756      0              56.746582      2033.4341    
    983000   311.98269     -5.3547592      0              59.934538      2015.4088    
    984000   292.19476     -4.8805995      0              56.267633      2071.0625    
    985000   305.73129     -4.8593549      0              59.121698      2040.4981    
    986000   308.04653     -4.0952528      0              60.370315      2129.0739    
    987000   302.76281     -6.0662834      0              57.293549      2104.7862    
    988000   297.16235     -5.6909553      0              56.496856      2032.8462    
    989000   297.88836     -3.0483202      0              59.291424      2195.5413    
    990000   306.26506     -5.100085       0              58.99267       2076.3573    
    991000   297.97229     -3.9885966      0              58.368712      2121.2577    
    992000   297.64565     -3.5871691      0              58.701783      2095.56      
    993000   298.65858     -5.0978125      0              57.403118      2143.1192    
    994000   309.3959      -4.3293341      0              60.41862       2129.0431    
    995000   294.36763     -4.1593907      0              57.443564      2125.5784    
    996000   291.91115     -4.943014       0              56.145867      2006.6071    
    997000   295.86456     -4.2204285      0              57.695791      2030.7951    
    998000   309.46412     -3.6962481      0              61.065981      2157.3473    
    999000   307.42301     -4.1219152      0              60.213167      2145.3203    
   1000000   300.72685     -3.8737314      0              59.06003       2123.5293    
   1001000   297.79337     -4.7228838      0              57.596982      2092.6221    
   1002000   299.06437     -4.9230907      0              57.66276       2038.0481    
   1003000   306.48003     -5.9705881      0              58.167154      2179.5825    
   1004000   294.75415     -6.4234535      0              55.260388      1993.0309    
   1005000   298.15942     -5.7608298      0              56.63564       2049.9204    
   1006000   299.34194     -5.6777605      0              56.966178      1999.7564    
   1007000   297.59244     -5.866401       0              56.411417      2167.3253    
   1008000   308.19764     -3.5884991      0              60.908691      2117.4298    
   1009000   297.34068     -4.4773673      0              57.747764      2067.827     
   1010000   302.5003      -5.6361484      0              57.668746      2101.4633    
   1011000   297.51682     -4.2675134      0              57.994479      2117.8886    
   1012000   300.56518     -4.6967809      0              58.203149      2165.0865    
   1013000   296.61097     -4.1596078      0              57.912815      2056.3522    
   1014000   299.8343      -4.8426238      0              57.904351      2045.7624    
   1015000   304.44141     -6.804219       0              56.906897      2099.1628    
   1016000   307.56699     -6.062608       0              58.302605      2109.3872    
   1017000   298.92561     -6.4864004      0              56.070411      2083.4554    
   1018000   303.41974     -4.3638353      0              59.133473      2119.3666    
   1019000   301.69378     -2.411069       0              60.725045      2184.4204    
   1020000   305.93248     -4.5524097      0              59.470747      2088.489     
   1021000   297.88426     -5.1658432      0              57.173043      1985.9553    
   1022000   303.28248     -5.4822127      0              57.986371      1970.0522    
   1023000   297.5227      -4.3153407      0              57.947881      2032.6005    
   1024000   298.96597     -3.5210997      0              59.044158      2104.1474    
   1025000   299.74202     -4.2126016      0              58.515063      2158.2991    
   1026000   308.48826     -5.2135061      0              59.344502      2021.2639    
   1027000   301.3628      -3.1804927      0              59.886356      2138.3531    
   1028000   303.55987     -4.1999845      0              59.32665       2176.8692    
   1029000   291.3187      -3.9730203      0              56.991877      2064.6615    
   1030000   293.56622     -2.6215546      0              58.813687      2133.3053    
   1031000   295.72969     -4.4618984      0              57.426096      2103.4826    
   1032000   301.20717     -4.0450424      0              58.989236      2101.2269    
   1033000   302.20738     -4.0330632      0              59.210532      2091.8051    
   1034000   295.49338     -4.377538       0              57.461005      2093.929     
   1035000   304.23165     -4.7290107      0              58.938208      2129.4264    
   1036000   294.56124     -3.8909755      0              57.752496      2123.098     
   1037000   305.36192     -3.7597266      0              60.144026      2161.3202    
   1038000   301.71391     -4.0586968      0              59.081628      2229.0116    
   1039000   294.21864     -2.9879233      0              58.583852      2286.2876    
   1040000   300.39649     -1.9465155      0              60.918111      2295.7534    
   1041000   304.05015     -2.7233444      0              60.905892      2127.7354    
   1042000   302.36659     -4.0242737      0              59.25264       2131.8838    
   1043000   303.54817     -5.2144097      0              58.309776      2014.7901    
   1044000   298.92145     -4.1819969      0              58.373944      2039.0374    
   1045000   297.82581     -5.358516       0              56.968139      2062.8801    
   1046000   297.92608     -4.7161835      0              57.631456      2127.889     
   1047000   294.32624     -3.8200704      0              57.774221      2180.9569    
   1048000   301.93648     -3.8571598      0              59.329744      2032.0998    
   1049000   289.59585     -2.8543314      0              57.750021      2171.6929    
   1050000   308.52436     -4.7822235      0              59.78334       2130.3416    
   1051000   296.43645     -4.6298939      0              57.406007      1976.3355    
   1052000   294.92327     -5.5039069      0              56.215328      2059.3444    
   1053000   307.13178     -4.6973988      0              59.576736      2152.4163    
   1054000   299.55799     -5.5808864      0              57.108266      2043.979     
   1055000   297.13767     -4.1645986      0              58.018048      2163.4789    
   1056000   291.79721     -4.0776937      0              56.987344      2160.3399    
   1057000   299.09363     -3.3509126      0              59.241062      2101.1113    
   1058000   305.97305     -3.5855942      0              60.446051      2121.4376    
   1059000   294.45999     -3.4616748      0              58.160608      2148.2211    
   1060000   302.30383     -4.6723703      0              58.591409      2020.9257    
   1061000   302.63931     -4.4682021      0              58.865784      2050.0467    
   1062000   296.42395     -4.9450153      0              57.088269      2171.3863    
   1063000   299.18626     -4.8117104      0              57.79965       2041.4124    
   1064000   287.72383     -2.7467331      0              57.465858      2123.5072    
   1065000   291.12638     -5.885824       0              55.038827      2105.6144    
   1066000   306.20657     -5.2979396      0              58.782576      2076.1962    
   1067000   296.84096     -5.8615175      0              56.259036      2083.8781    
   1068000   292.91966     -6.5194555      0              54.780479      2002.022     
   1069000   314.15513     -4.521198       0              61.222728      2095.2026    
   1070000   300.87414     -4.5917425      0              58.372843      2171.393     
   1071000   308.27336     -4.5643453      0              59.948692      2163.5235    
   1072000   300.59552     -4.049954       0              58.856323      2039.1076    
   1073000   302.97172     -5.247753       0              58.155798      2097.0734    
   1074000   300.76095     -4.3532448      0              58.587653      2075.8098    
   1075000   293.07253     -6.2083631      0              55.123562      2076.1291    
   1076000   287.47753     -5.9317076      0              54.22934       2033.0301    
   1077000   292.93987     -4.8905501      0              56.413613      2079.5739    
   1078000   296.80265     -4.344275       0              57.768262      2070.2025    
   1079000   299.33646     -5.4252439      0              57.217549      2021.604     
   1080000   294.43926     -4.7174762      0              56.900469      2112.9448    
   1081000   294.91417     -4.7466579      0              56.970672      2063.8916    
   1082000   305.27598     -7.3621376      0              56.52363       1993.5714    
   1083000   304.30189     -5.1622011      0              58.519718      2116.9532    
   1084000   307.24879     -4.5642503      0              59.734373      2144.5524    
   1085000   296.26771     -5.1327172      0              56.867871      2131.8362    
   1086000   300.94827     -2.9834408      0              59.996658      2028.5437    
   1087000   304.13038     -4.2504615      0              59.395564      2110.8774    
   1088000   295.24578     -4.2995647      0              57.487162      2128.5258    
   1089000   300.69807     -5.332132       0              57.595608      2031.3006    
   1090000   305.63672     -4.2985945      0              59.662667      2184.7975    
   1091000   299.11978     -4.8729917      0              57.724455      2109.8849    
   1092000   298.65322     -5.3200308      0              57.179779      2184.0513    
   1093000   303.60513     -5.5180422      0              58.018063      2117.0558    
   1094000   304.7712      -4.6230762      0              59.157056      2043.4509    
   1095000   303.50916     -5.0038752      0              58.512147      2018.4435    
   1096000   306.10146     -5.4423618      0              58.616156      1978.8034    
   1097000   297.67357     -4.135279       0              58.159516      2131.3628    
   1098000   293.13715     -5.540633       0              55.804817      2026.1673    
   1099000   306.96057     -4.4720781      0              59.766228      2137.9351    
   1100000   301.61095     -4.0172194      0              59.10156       2186.6204    
   1101000   303.56809     -4.3625588      0              59.165797      2013.8883    
   1102000   291.02845     -3.406934       0              57.497223      2122.2315    
   1103000   308.13935     -2.3375184      0              62.147474      2180.2491    
   1104000   301.50975     -4.9725016      0              58.1251        2045.0573    
   1105000   309.12886     -3.6445449      0              61.047524      2152.678     
   1106000   302.62039     -2.8040307      0              60.525997      2090.3702    
   1107000   306.30187     -3.8480132      0              60.252445      2181.9277    
   1108000   310.49674     -5.6410998      0              59.337229      2137.2839    
   1109000   300.59229     -4.155976       0              58.749627      2170.2727    
   1110000   296.95574     -4.8267919      0              57.317782      2132.365     
   1111000   290.21008     -4.8247843      0              55.90811       2137.2102    
   1112000   298.31949     -5.3388329      0              57.091135      2160.9576    
   1113000   301.65293     -5.1707158      0              57.956848      2064.9762    
   1114000   302.52255     -5.9271111      0              57.382442      1986.7326    
   1115000   299.30238     -4.9838272      0              57.651833      2072.8802    
   1116000   306.30566     -4.1691256      0              59.932126      2134.9427    
   1117000   302.84925     -5.4513593      0              57.926563      2011.8693    
   1118000   296.06531     -5.6969161      0              56.261315      2044.3098    
   1119000   308.75378     -3.9520317      0              60.661544      2262.0839    
   1120000   294.98506     -5.0100061      0              56.722158      2035.2366    
   1121000   296.35084     -4.6079321      0              57.410053      2151.3429    
   1122000   301.58798     -4.6128899      0              58.501082      2060.1209    
   1123000   299.71353     -4.4669778      0              58.254725      2008.441     
   1124000   305.99187     -5.0670129      0              58.968572      2085.9504    
   1125000   304.39977     -3.9997299      0              59.702673      2131.0683    
   1126000   299.03289     -4.679278       0              57.899986      2091.9207    
   1127000   302.0528      -4.245792       0              58.965454      2056.1012    
   1128000   298.71203     -5.52558        0              56.986537      2045.0581    
   1129000   297.41827     -3.874135       0              58.367233      2170.5159    
   1130000   295.68057     -5.3366458      0              56.54107       2032.8694    
   1131000   314.79789     -4.3052804      0              61.573159      2085.6868    
   1132000   301.96413     -4.6359411      0              58.556749      2127.5874    
   1133000   298.49269     -4.6368383      0              57.829376      2060.3132    
   1134000   296.70934     -3.93413        0              58.158879      2138.8346    
   1135000   287.18368     -3.145952       0              56.9536        2077.0563    
   1136000   300.25586     -4.5888293      0              58.246367      2101.8083    
   1137000   295.39388     -3.7568183      0              58.060902      2054.8213    
   1138000   301.20156     -2.8553739      0              60.177731      2179.9785    
   1139000   309.45303     -4.326921       0              60.432987      2127.6531    
   1140000   306.68222     -4.2293502      0              59.950706      2116.5766    
   1141000   298.28455     -5.0916187      0              57.331037      2031.1047    
   1142000   307.75641     -4.2221461      0              60.182707      2181.141     
   1143000   294.89965     -4.7215468      0              56.992745      2101.1876    
   1144000   309.42438     -4.1969401      0              60.556972      2002.976     
   1145000   295.76988     -3.8423336      0              58.054072      2234.1755    
   1146000   299.21075     -4.946583       0              57.669901      2120.8821    
   1147000   293.82499     -4.2270098      0              57.262386      2108.8145    
   1148000   292.63206     -5.0908069      0              56.14894       1998.2563    
   1149000   301.52176     -3.5160188      0              59.584096      2071.6772    
   1150000   300.00386     -4.4775514      0              58.304909      2132.657     
   1151000   302.19009     -4.7276726      0              58.512305      2157.0023    
   1152000   296.10207     -5.2624459      0              56.703479      2074.8101    
   1153000   293.0279      -5.8604305      0              55.462156      1996.3896    
   1154000   304.76231     -3.7485167      0              60.029756      2027.9255    
   1155000   301.1872      -4.019917       0              59.010184      2041.6971    
   1156000   304.3328      -3.6007671      0              60.087619      2223.0982    
   1157000   309.60055     -2.9586194      0              61.832161      2156.3718    
   1158000   300.94879     -3.2903409      0              59.689867      2124.6902    
   1159000   299.24577     -5.1136017      0              57.510212      2066.8802    
   1160000   298.66386     -3.2348914      0              59.267144      2155.9484    
   1161000   292.21697     -5.4426788      0              55.710201      2007.339     
   1162000   309.33911     -3.6940767      0              61.041992      2113.7192    
   1163000   301.33118     -5.7606333      0              57.299599      2058.3931    
   1164000   295.42175     -4.5944898      0              57.229063      2064.0992    
   1165000   299.48343     -4.5651557      0              58.108393      2137.8046    
   1166000   302.96556     -3.6025226      0              59.799739      2171.7191    
   1167000   308.75656     -4.729931       0              59.884225      2168.6676    
   1168000   305.82365     -4.0884867      0              59.911893      2191.3714    
   1169000   301.23093     -3.2154466      0              59.823805      2170.5306    
   1170000   302.86602     -3.3638404      0              60.01759       2203.92      
   1171000   296.18822     -4.95365        0              57.030304      1935.769     
   1172000   305.01333     -3.9707858      0              59.860017      2181.4823    
   1173000   303.43286     -6.7486884      0              56.751366      1953.3097    
   1174000   317.37835     -5.6272101      0              60.791247      2127.2033    
   1175000   295.29814     -4.6655225      0              57.132162      2032.1481    
   1176000   308.46776     -6.0773183      0              58.4764        2114.3147    
   1177000   296.37903     -5.7841417      0              56.239741      2026.7457    
   1178000   300.20868     -5.4347751      0              57.390549      2024.7092    
   1179000   284.87823     -5.0832638      0              54.533822      1959.1045    
   1180000   288.75847     -3.8579813      0              56.571132      2015.8497    
   1181000   306.28616     -3.9658988      0              60.131271      2151.9247    
   1182000   302.90889     -5.4947702      0              57.895633      2158.7562    
   1183000   297.85559     -4.0787776      0              58.254109      2159.3542    
   1184000   290.05565     -4.6639553      0              56.036622      2033.5129    
   1185000   303.91634     -4.9642717      0              58.636962      2090.0539    
   1186000   308.47232     -5.782664       0              58.772009      2074.4619    
   1187000   298.72259     -4.8706556      0              57.643671      2036.3152    
   1188000   302.82152     -4.7497397      0              58.622378      2065.4378    
   1189000   292.66471     -4.4463146      0              56.800266      2095.9367    
   1190000   295.64281     -5.0935928      0              56.776221      2093.6377    
   1191000   296.43665     -3.3408473      0              58.695096      2180.0687    
   1192000   303.0186      -4.0092991      0              59.404062      2128.1159    
   1193000   302.89935     -3.3153247      0              60.073082      2028.9968    
   1194000   311.93522     -5.3108594      0              59.968502      2067.3661    
   1195000   298.65436     -5.7869373      0              56.71311       2011.5134    
   1196000   292.7143      -6.0463112      0              55.210647      1929.5275    
   1197000   301.43325     -5.8337217      0              57.247871      2072.9209    
   1198000   305.0018      -4.8558979      0              58.972493      2060.2049    
   1199000   293.34037     -3.5043943      0              57.883583      2096.6746    
   1200000   302.26564     -4.9242473      0              58.33154       2080.3729    
   1201000   301.41497     -3.6896033      0              59.388164      2151.3129    
   1202000   317.0612      -2.8168872      0              63.535199      2217.587     
   1203000   295.87091     -3.9439191      0              57.97363       2035.0646    
   1204000   299.05355     -4.2771617      0              58.306424      2070.2869    
   1205000   305.2174      -4.609726       0              59.263784      2130.3451    
   1206000   297.55061     -3.9857621      0              58.283302      2059.0527    
   1207000   297.47975     -3.6537785      0              58.600457      2180.4643    
   1208000   296.52287     -4.6269652      0              57.42702       2063.3424    
   1209000   302.7936      -4.3109528      0              59.055322      2138.3829    
   1210000   302.71161     -4.5816636      0              58.767454      2152.4793    
   1211000   306.23262     -4.9470169      0              59.138949      2033.2805    
   1212000   310.15442     -3.826547       0              61.080142      2045.7769    
   1213000   295.2598      -6.0067898      0              55.78287       1951.178     
   1214000   299.70146     -4.2906365      0              58.428539      2165.7399    
   1215000   303.67019     -5.5380307      0              58.011691      2070.3287    
   1216000   294.00324     -4.5963089      0              56.930389      2138.2321    
   1217000   301.53138     -4.3236563      0              58.778472      2195.6432    
   1218000   305.97192     -4.4758471      0              59.555561      2175.5025    
   1219000   305.39778     -5.2885159      0              58.622741      2064.9475    
   1220000   299.59906     -4.4969951      0              58.200751      2092.3738    
   1221000   313.3036      -3.5606767      0              62.00505       2141.9789    
   1222000   290.96432     -4.8623676      0              56.028369      2020.9635    
   1223000   296.82524     -4.4044186      0              57.712846      2076.3973    
   1224000   300.06171     -5.4550737      0              57.339492      2050.5871    
   1225000   300.07884     -5.9317109      0              56.866441      2067.1213    
   1226000   303.12136     -6.7384131      0              56.696453      2014.2194    
   1227000   293.28889     -5.152788       0              56.224416      2103.7058    
   1228000   297.24171     -5.7597023      0              56.444716      1983.0639    
   1229000   304.41834     -2.1978125      0              61.508475      2136.2582    
   1230000   301.70994     -5.4375021      0              57.701994      1999.9755    
   1231000   290.22711     -4.9059525      0              55.830506      2059.3265    
   1232000   310.56898     -4.8525562      0              60.140889      2149.2803    
   1233000   300.60148     -4.1099373      0              58.797589      2168.9128    
   1234000   290.70782     -2.6079977      0              58.22906       2239.4835    
   1235000   298.45246     -4.5112689      0              57.946526      1986.7525    
   1236000   300.26131     -5.6711814      0              57.165155      2083.1267    
   1237000   292.72184     -4.9698889      0              56.288648      2085.1819    
   1238000   301.56828     -3.985561       0              59.124289      2064.4563    
   1239000   299.66764     -4.5609894      0              58.151109      2179.1229    
   1240000   300.89952     -5.2727136      0              57.697184      2172.5676    
   1241000   291.30736     -5.177176       0              55.785349      2108.3726    
   1242000   299.25121     -3.04229        0              59.58266       2066.1187    
   1243000   301.35905     -2.8484118      0              60.217652      2134.7289    
   1244000   308.61942     -5.3350337      0              59.250423      2136.7799    
   1245000   299.80831     -3.6614169      0              59.08012       1987.409     
   1246000   307.65779     -4.4511027      0              59.933113      2122.5163    
   1247000   301.51417     -4.8867267      0              58.211799      2114.318     
   1248000   287.30752     -3.4267403      0              56.69873       2132.7385    
   1249000   308.15818     -4.3982192      0              60.090712      2255.4805    
   1250000   297.64801     -4.9381028      0              57.351343      2035.5114    
   1251000   291.61944     -3.9348648      0              57.09297       2128.3306    
   1252000   284.79534     -4.5758326      0              55.023909      2022.8768    
   1253000   308.10471     -2.0399685      0              62.437774      2150.5604    
   1254000   300.58713     -3.4627906      0              59.441731      2137.4095    
   1255000   291.78654     -5.9004155      0              55.162387      2033.4266    
   1256000   294.0259      -4.3750196      0              57.15642       2147.123     
   1257000   301.38262     -5.1187322      0              57.952263      1974.1661    
   1258000   306.68898     -3.6161246      0              60.565344      2111.5521    
   1259000   306.80977     -4.6853735      0              59.521375      2113.5627    
   1260000   299.41919     -5.1779522      0              57.482153      2029.1066    
   1261000   301.64664     -4.424995       0              58.701254      2124.9922    
   1262000   292.03741     -4.1767493      0              56.938556      2120.4508    
   1263000   309.17326     -4.2157812      0              60.48558       2074.7778    
   1264000   293.99281     -5.5549436      0              55.969571      2012.7354    
   1265000   294.75662     -5.2051261      0              56.479233      2090.6966    
   1266000   299.29559     -4.333484       0              58.300755      2180.3931    
   1267000   303.51979     -3.3140493      0              60.204198      2225.763     
   1268000   300.01083     -3.9445634      0              58.839356      2159.767     
   1269000   300.43509     -5.7251607      0              57.147544      1905.241     
   1270000   299.92332     -5.2234853      0              57.54212       2111.7934    
   1271000   297.63653     -3.593828       0              58.693216      2061.3451    
   1272000   307.48965     -5.1083914      0              59.240637      2062.5367    
   1273000   296.48346     -6.0272262      0              56.018512      1969.9411    
   1274000   303.47153     -6.4001984      0              57.107948      2075.4429    
   1275000   312.93905     -4.9636932      0              60.525742      2146.5964    
   1276000   301.33818     -4.9010292      0              58.160668      2111.4149    
   1277000   308.59651     -4.5714577      0              60.009204      2113.2713    
   1278000   292.36646     -4.6553025      0              56.528863      2131.9962    
   1279000   293.39319     -4.7735912      0              56.625439      2100.4618    
   1280000   311.80957     -4.105011       0              61.148056      2080.4059    
   1281000   302.05343     -4.335408       0              58.875971      1972.5824    
   1282000   293.76129     -4.8722528      0              56.60381       2143.8615    
   1283000   296.23169     -2.9338055      0              59.059245      2146.5988    
   1284000   301.92092     -4.5490813      0              58.634567      2025.6509    
   1285000   295.37094     -3.5412813      0              58.271638      2042.6574    
   1286000   293.40265     -4.0785628      0              57.322448      2045.8452    
   1287000   302.16694     -6.0610325      0              57.1741        2050.5228    
   1288000   306.02068     -3.0579675      0              60.983646      2165.9766    
   1289000   290.15845     -4.3227124      0              56.399378      2088.301     
   1290000   298.08702     -4.3955183      0              57.9858        1960.4639    
   1291000   299.09638     -4.4059381      0              58.186612      2005.8115    
   1292000   302.19244     -5.4865045      0              57.753964      2110.5191    
   1293000   297.60781     -3.2599736      0              59.021059      2109.3875    
   1294000   306.65554     -5.5875549      0              58.586917      2053.4102    
   1295000   307.93138     -4.0119736      0              60.429495      2226.212     
   1296000   298.95436     -3.9330826      0              58.629746      2197.0906    
   1297000   292.5306      -4.8214256      0              56.39709       2023.3732    
   1298000   298.13736     -4.3175153      0              58.074339      2146.3832    
   1299000   309.7263      -4.9021716      0              59.914924      2112.2416    
   1300000   300.07965     -3.561766       0              59.236555      2099.666     
   1301000   307.26566     -4.3966118      0              59.905541      2066.3524    
   1302000   296.16424     -5.2586388      0              56.720296      2015.902     
   1303000   303.16695     -5.0901247      0              58.354283      2126.7728    
   1304000   291.59004     -4.6430774      0              56.378604      2118.5322    
   1305000   303.31871     -5.4427562      0              58.03341       2133.5206    
   1306000   297.85451     -2.850415       0              59.482246      2182.6666    
   1307000   303.72899     -3.2538802      0              60.308145      2149.1545    
   1308000   299.35751     -5.5177934      0              57.129403      2063.9954    
   1309000   289.33805     -5.7432537      0              54.807149      2129.1198    
   1310000   305.3138      -3.4533467      0              60.440337      2078.7954    
   1311000   301.18302     -4.0756807      0              58.953546      2210.1722    
   1312000   284.16674     -5.5440833      0              53.924109      2076.0866    
   1313000   294.67236     -5.9568054      0              55.70992       2059.8681    
   1314000   303.18986     -2.7047075      0              60.744494      2147.0996    
   1315000   295.787       -4.9146         0              56.985388      1970.3395    
   1316000   297.29157     -4.6031858      0              57.611667      2144.925     
   1317000   301.02967     -5.1508735      0              57.84626       2063.0877    
   1318000   300.68106     -2.4093983      0              60.51478       2172.7571    
   1319000   294.47165     -3.8855841      0              57.739139      2125.3645    
   1320000   291.28999     -3.2046977      0              57.754192      2150.9105    
   1321000   313.71622     -4.2300005      0              61.422076      2091.9031    
   1322000   306.65823     -5.304158       0              58.870878      2046.7754    
   1323000   295.16248     -4.2753455      0              57.493949      2172.7515    
   1324000   300.22082     -3.1005118      0              59.727352      2180.8948    
   1325000   304.97564     -4.9073046      0              58.915611      2074.4163    
   1326000   306.52763     -4.0179375      0              60.129766      2067.5111    
   1327000   286.96514     -5.3781458      0              54.675673      1898.3351    
   1328000   300.23426     -6.3661593      0              56.464518      2038.0855    
   1329000   301.37118     -3.7376778      0              59.330925      2126.1791    
   1330000   303.16887     -5.484938       0              57.959872      1898.4295    
   1331000   299.99036     -5.5154237      0              57.264211      2107.5513    
   1332000   296.45879     -4.9705349      0              57.070041      2156.6818    
   1333000   294.51501     -4.5949092      0              57.038888      2055.8995    
   1334000   295.3057      -3.5407869      0              58.258479      2146.8122    
   1335000   295.15857     -5.2341321      0              56.534344      2151.3978    
   1336000   308.66254     -6.6946325      0              57.899849      2052.1725    
   1337000   289.56033     -3.3451628      0              57.251758      2044.819     
   1338000   299.78463     -6.7858246      0              55.950757      2095.6347    
   1339000   292.66125     -3.2759023      0              57.969954      2065.115     
   1340000   300.48198     -5.4385774      0              57.443941      2043.643     
   1341000   301.30419     -5.7581268      0              57.296455      2146.5287    
   1342000   307.25775     -4.4310597      0              59.869438      2083.8       
   1343000   304.394       -4.9976335      0              58.70356       2147.5518    
   1344000   289.57343     -5.2976135      0              55.302048      2012.9425    
   1345000   294.92111     -4.3795388      0              57.339244      2144.5777    
   1346000   294.55163     -3.2876036      0              58.353856      2209.4214    
   1347000   299.7882      -5.6473815      0              57.089947      2088.9831    
   1348000   300.40389     -5.6180736      0              57.248102      2113.4363    
   1349000   304.00852     -4.2424876      0              59.378037      2144.9119    
   1350000   294.72038     -5.8033581      0              55.873417      2002.8592    
   1351000   291.4868      -5.1298371      0              55.87024       2057.8347    
   1352000   296.91075     -4.756908       0              57.378251      2060.0107    
   1353000   290.72921     -5.2937335      0              55.5478        2025.7468    
   1354000   291.51254     -5.3494394      0              55.656024      2090.5455    
   1355000   308.15857     -2.9157633      0              61.573251      2177.1991    
   1356000   304.8036      -4.314829       0              59.472083      2059.2755    
   1357000   297.21622     -3.7216563      0              58.477429      2170.1988    
   1358000   304.64725     -5.4305846      0              58.323608      2080.8593    
   1359000   291.82562     -3.7949132      0              57.276068      2128.7535    
   1360000   300.92106     -5.2428564      0              57.731549      2035.2262    
   1361000   306.81794     -4.5152082      0              59.693249      2137.5719    
   1362000   301.32176     -3.9003904      0              59.157869      2165.2504    
   1363000   300.64327     -4.2589303      0              58.65734       2101.2477    
   1364000   312.97334     -4.6090043      0              60.887607      2119.7568    
   1365000   303.48318     -5.1575596      0              58.353025      2022.1644    
   1366000   307.71291     -3.9630233      0              60.432726      2066.3411    
   1367000   300.54095     -5.1988602      0              57.695998      2047.5709    
   1368000   306.27309     -3.9967902      0              60.097646      2144.3915    
   1369000   297.90512     -4.0129451      0              58.330308      2167.7448    
   1370000   295.24725     -3.8976914      0              57.889343      2060.1778    
   1371000   298.1603      -4.4323663      0              57.964287      1944.5088    
   1372000   296.22193     -4.3532759      0              57.637732      2114.6962    
   1373000   304.47066     -3.000101       0              60.717136      2193.438     
   1374000   311.53829     -3.4402226      0              61.756072      2149.7178    
   1375000   293.49552     -6.4509127      0              54.969532      1936.488     
   1376000   306.30481     -5.5888088      0              58.512264      2051.9034    
   1377000   297.79665     -2.9701481      0              59.350405      2053.7412    
   1378000   301.2775      -4.6460714      0              58.402927      2042.811     
   1379000   294.07235     -4.9450762      0              56.596084      2147.0887    
   1380000   309.964       -4.6646707      0              60.20217       2065.0072    
   1381000   304.82019     -3.6171088      0              60.173275      2103.828     
   1382000   298.38796     -4.3317641      0              58.112533      2119.1596    
   1383000   303.86531     -4.3191342      0              59.27142       2191.7727    
   1384000   299.70518     -5.6596555      0              57.0603        2065.5544    
   1385000   297.48378     -5.4364672      0              56.81861       2049.0292    
   1386000   297.08882     -6.1118832      0              56.060541      1973.7139    
   1387000   300.59804     -4.3346119      0              58.572193      2171.0988    
   1388000   304.2988      -5.8042009      0              57.877072      2083.2206    
   1389000   293.49204     -3.6419199      0              57.777797      2120.1667    
   1390000   300.19352     -4.6838563      0              58.138295      2107.1837    
   1391000   300.5705      -5.6925462      0              57.208496      2016.9965    
   1392000   296.62478     -6.1506844      0              55.924629      2106.8727    
   1393000   293.17358     -4.6714178      0              56.681655      2060.4215    
   1394000   298.71094     -3.6921518      0              58.819736      2135.7766    
   1395000   298.53403     -5.1765634      0              57.298302      2105.8601    
   1396000   305.20894     -3.0723055      0              60.799432      2113.5148    
   1397000   312.44563     -5.4049403      0              59.981236      2154.8743    
   1398000   296.66012     -5.3912515      0              56.691456      2074.1669    
   1399000   310.22686     -3.3542205      0              61.56763       2266.019     
   1400000   302.07026     -5.2186114      0              57.99629       2050.5545    
   1401000   300.34185     -5.0823828      0              57.77081       2068.2693    
   1402000   298.76669     -4.7709095      0              57.752646      2058.4994    
   1403000   290.90283     -3.7073318      0              57.170536      2185.0679    
   1404000   298.89826     -7.5284339      0              55.022654      1986.9273    
   1405000   292.74517     -4.1736695      0              57.089748      2133.6438    
   1406000   304.52169     -4.3328541      0              59.395062      2092.411     
   1407000   302.59722     -4.569292       0              58.755886      2064.5885    
   1408000   285.44889     -5.2165971      0              54.519914      2135.3978    
   1409000   304.0312      -5.4363783      0              58.188891      2133.5956    
   1410000   296.66557     -3.9400351      0              58.143813      2069.9393    
   1411000   304.05597     -3.3425616      0              60.287893      2181.6173    
   1412000   303.62388     -4.6209488      0              58.919081      2119.1208    
   1413000   302.00761     -3.8580782      0              59.34371       2076.8362    
   1414000   305.83573     -4.8809982      0              59.12191       2090.8286    
   1415000   300.31972     -4.1584184      0              58.690142      2097.6135    
   1416000   288.50221     -6.5378385      0              53.837646      1996.9062    
   1417000   294.7426      -5.0891272      0              56.592298      2064.4181    
   1418000   302.80298     -4.3478574      0              59.02038       2116.3201    
   1419000   295.06165     -4.1481041      0              57.600089      2025.8042    
   1420000   296.45309     -3.5476826      0              58.491701      2191.3379    
   1421000   310.17481     -5.1919967      0              59.718959      2074.0053    
   1422000   295.97701     -5.6365324      0              56.30322       2139.1741    
   1423000   307.23224     -4.3842112      0              59.910947      2140.018     
   1424000   300.74571     -4.8687201      0              58.068989      2071.615     
   1425000   294.85147     -5.5552941      0              56.148915      2043.3787    
   1426000   311.68057     -5.2633291      0              59.962741      2018.0879    
   1427000   291.61975     -4.3358456      0              56.692053      2034.7729    
   1428000   305.46123     -5.4843366      0              58.440199      2087.247     
   1429000   299.04031     -4.1069949      0              58.473821      2165.0113    
   1430000   283.67635     -4.5910558      0              54.774511      2074.1401    
   1431000   303.35569     -4.3188757      0              59.16503       2071.9286    
   1432000   301.34167     -4.4993613      0              58.563065      2082.7358    
   1433000   302.43404     -5.3576691      0              57.93336       2108.6107    
   1434000   305.49757     -3.5751471      0              60.356994      2096.7521    
   1435000   304.9155      -2.1718132      0              61.638517      2286.2053    
   1436000   289.5737      -4.8078008      0              55.791918      2075.0219    
   1437000   297.55297     -4.8302005      0              57.439357      2048.4251    
   1438000   321.12495     -3.6265361      0              63.57598       2140.764     
   1439000   296.43499     -4.1019457      0              57.933649      2104.2862    
   1440000   305.494       -3.8884422      0              60.042951      2143.063     
   1441000   297.53412     -4.0728933      0              58.19272       1967.2383    
   1442000   309.31934     -3.7533424      0              60.978588      2125.4268    
   1443000   291.2884      -3.1335859      0              57.824972      2251.8005    
   1444000   302.09368     -5.6271712      0              57.59263       2069.9789    
   1445000   306.16381     -4.1402783      0              59.931289      2034.4616    
   1446000   297.31633     -4.2872277      0              57.932806      1970.7341    
   1447000   295.92834     -5.1071918      0              56.822376      2079.4219    
   1448000   294.27563     -4.6156845      0              56.968016      2165.5192    
   1449000   302.97948     -3.8495091      0              59.555665      2147.9531    
   1450000   297.57719     -2.9642884      0              59.310337      2232.8115    
   1451000   307.88209     -4.939982       0              59.491174      2224.5663    
   1452000   301.30438     -5.3895547      0              57.665069      2086.9172    
   1453000   307.01748     -5.0481233      0              59.202092      2144.7461    
   1454000   297.99888     -5.0945944      0              57.268278      2128.051     
   1455000   296.54902     -4.2122124      0              57.847246      2159.2877    
   1456000   291.17416     -4.6839445      0              56.250706      2100.9345    
   1457000   302.28104     -5.0041097      0              58.254901      2086.2696    
   1458000   294.88151     -3.9796274      0              57.730868      2017.2568    
   1459000   303.78505     -6.448284       0              57.125473      2096.2353    
   1460000   302.56132     -4.5880136      0              58.729652      2133.6943    
   1461000   305.77974     -3.4611037      0              60.530087      2135.4814    
   1462000   300.86313     -4.5905823      0              58.371699      2051.2175    
   1463000   306.0585      -5.8253783      0              58.22415       2089.2383    
   1464000   296.51569     -2.4442724      0              59.60821       2191.0674    
   1465000   307.42582     -4.205842       0              60.129828      2191.1233    
   1466000   305.79871     -3.5167666      0              60.478394      2059.1385    
   1467000   297.76654     -3.7382008      0              58.576051      2020.5477    
   1468000   299.47581     -5.0480814      0              57.623872      2014.7281    
   1469000   296.57006     -3.9645367      0              58.099324      2068.2528    
   1470000   298.12218     -3.8811095      0              58.507568      2143.9931    
   1471000   310.73722     -4.9889526      0              60.039701      2069.7138    
   1472000   301.88701     -4.3000795      0              58.876471      2098.7422    
   1473000   299.95241     -5.2796598      0              57.492033      2087.4606    
   1474000   293.08485     -3.7798914      0              57.554612      2216.4877    
   1475000   300.9862      -3.6966884      0              59.291349      2084.4339    
   1476000   296.06885     -4.0367496      0              57.922223      2149.9747    
   1477000   300.73554     -3.8218857      0              59.113695      2076.6768    
   1478000   292.33713     -5.1456943      0              56.032333      2104.124     
   1479000   301.1829      -4.2609398      0              58.768261      2157.4844    
   1480000   295.09372     -4.2075342      0              57.54737       2046.4027    
   1481000   302.18786     -5.3980531      0              57.841457      2078.0948    
   1482000   305.198       -5.3051294      0              58.564321      2024.5167    
   1483000   298.20222     -3.9746436      0              58.430783      2102.6429    
   1484000   307.04965     -4.7169153      0              59.540034      2172.4221    
   1485000   293.10493     -3.7562001      0              57.582506      2093.4051    
   1486000   297.67907     -5.570426       0              56.72552       2003.068     
   1487000   293.42777     -4.8283561      0              56.577912      2149.7986    
   1488000   306.97196     -4.3956496      0              59.845039      2102.2709    
   1489000   291.55706     -6.6945166      0              54.320263      1896.1489    
   1490000   299.2639      -4.3302741      0              58.297332      2193.9311    
   1491000   292.46005     -5.5086935      0              55.695056      1980.3709    
   1492000   302.12684     -4.740302       0              58.48644       2149.41      
   1493000   296.22371     -5.414383       0              56.576997      2156.3702    
   1494000   295.82506     -5.3950189      0              56.512934      2029.433     
   1495000   292.03981     -3.2972765      0              57.81853       2140.9282    
   1496000   292.39713     -5.0044308      0              56.186152      2084.2022    
   1497000   298.99756     -5.7370206      0              56.83485       2079.1566    
   1498000   295.53915     -3.7061696      0              58.14195       2165.308     
   1499000   299.5172      -5.7089623      0              56.971654      2047.2886    
   1500000   297.41677     -3.1333499      0              59.107705      2097.5148    
   1501000   303.14697     -4.6552565      0              58.784969      2060.0876    
   1502000   294.26041     -4.5355231      0              57.044992      2067.8989    
   1503000   298.77711     -2.9001939      0              59.625543      2194.5797    
   1504000   296.85423     -2.8066224      0              59.316708      2233.5638    
   1505000   304.63391     -4.2394577      0              59.511943      2219.5023    
   1506000   303.99389     -4.8085902      0              58.808872      2105.5245    
   1507000   304.84336     -5.3213996      0              58.473832      2117.8845    
   1508000   299.48235     -4.3081374      0              58.365184      2105.9302    
   1509000   300.58762     -4.6210565      0              58.283568      2102.9224    
   1510000   298.04092     -4.6071529      0              57.764518      2140.9723    
   1511000   302.17592     -5.3366095      0              57.900402      2041.9314    
   1512000   310.70035     -4.0918664      0              60.929072      2129.4557    
   1513000   293.53503     -4.2902072      0              57.138507      2064.2737    
   1514000   305.99098     -3.332222       0              60.703175      2158.6343    
   1515000   305.62716     -4.1736537      0              59.785607      2169.9132    
   1516000   297.31371     -5.4931089      0              56.726378      2118.4311    
   1517000   289.42781     -4.3769111      0              56.192277      2132.7395    
   1518000   301.06126     -5.0080223      0              57.995722      2038.1588    
   1519000   314.75471     -4.5708506      0              61.298552      2178.5517    
   1520000   298.65598     -6.0881092      0              56.412277      1981.0215    
   1521000   303.14385     -5.7398065      0              57.699767      2006.5951    
   1522000   293.98591     -6.1277146      0              55.395357      2056.7129    
   1523000   314.09345     -4.4512086      0              61.27981       2201.8891    
   1524000   300.01409     -4.5219896      0              58.26261       2209.2785    
   1525000   300.57921     -3.9156093      0              58.987256      2063.3543    
   1526000   293.62826     -5.7628168      0              55.685408      1990.9796    
   1527000   313.93914     -5.2912199      0              60.407508      2125.6117    
   1528000   302.06359     -5.8728415      0              57.340662      2020.086     
   1529000   305.86289     -3.7512218      0              60.257371      2064.8561    
   1530000   300.39599     -4.3224652      0              58.542056      2036.2522    
   1531000   304.54592     -1.8416535      0              61.891334      2202.1394    
   1532000   298.1098      -4.0216793      0              58.364406      2097.8911    
   1533000   301.90682     -5.0155982      0              58.165098      2039.9538    
   1534000   301.56564     -6.2047545      0              56.904543      2021.6738    
   1535000   298.32056     -3.6850214      0              58.745171      2140.0389    
   1536000   298.75446     -6.0632463      0              56.45775       1975.3401    
   1537000   290.6614      -4.1240384      0              56.703306      2066.1941    
   1538000   300.05655     -3.8718485      0              58.921638      2118.3109    
   1539000   304.4768      -3.950573       0              59.76795       2148.533     
   1540000   294.01166     -4.2034529      0              57.325006      2161.1945    
   1541000   297.62046     -4.2267788      0              58.056903      2090.4368    
   1542000   302.33238     -5.179182       0              58.090573      1995.8343    
   1543000   292.66455     -5.7517681      0              55.494779      2031.4713    
   1544000   296.12902     -4.5250768      0              57.446488      2028.6668    
   1545000   302.8797      -4.1458498      0              59.238445      2133.3933    
   1546000   311.79647     -3.5810102      0              61.669315      2175.7676    
   1547000   295.89565     -5.3394503      0              56.583276      2002.9293    
   1548000   310.23309     -4.7130594      0              60.210095      2150.4187    
   1549000   306.46228     -4.035586       0              60.098442      2124.6709    
   1550000   305.8279      -5.6183271      0              58.382942      2012.8489    
   1551000   289.99822     -4.2284834      0              56.460075      2156.4939    
   1552000   291.98308     -4.4129715      0              56.690962      2047.5728    
   1553000   298.61045     -4.5363119      0              57.954546      2138.087     
   1554000   302.81494     -4.1649902      0              59.205751      2179.347     
   1555000   298.32505     -5.0780896      0              57.353043      1976.2734    
   1556000   296.87966     -2.3685593      0              59.760093      2209.2497    
   1557000   299.55778     -4.2648037      0              58.424305      2080.3053    
   1558000   304.07547     -4.6821876      0              58.952347      2063.0157    
   1559000   294.64124     -4.4341208      0              57.226093      2079.1582    
   1560000   288.4808      -5.0574363      0              55.313568      2131.9557    
   1561000   298.10079     -4.2754058      0              58.108795      2001.5257    
   1562000   312.92937     -4.233979       0              61.25343       2198.9843    
   1563000   298.47094     -6.2711031      0              56.190559      2012.804     
   1564000   296.55104     -3.5309429      0              58.528937      2087.6497    
   1565000   295.64337     -3.58924        0              58.280691      2137.681     
   1566000   297.52171     -5.373868       0              56.889148      2071.7348    
   1567000   296.36488     -5.914667       0              56.106256      1964.8843    
   1568000   298.72438     -5.1244439      0              57.390257      2054.5872    
   1569000   293.32261     -4.061932       0              57.322329      2210.4897    
   1570000   306.16247     -4.3078981      0              59.763387      2167.3999    
   1571000   288.23042     -4.742797       0              55.57581       2010.2498    
   1572000   302.3375      -5.9928266      0              57.277999      2025.6877    
   1573000   297.4454      -4.1040363      0              58.14301       2097.282     
   1574000   299.58382     -4.810458       0              57.8841        2060.5927    
   1575000   300.39887     -3.2033298      0              59.661796      2153.7592    
   1576000   301.09295     -5.2721233      0              57.738253      2043.4672    
   1577000   296.79243     -3.841128       0              58.26927       2150.9185    
   1578000   297.02549     -5.7448309      0              56.414339      2018.0512    
   1579000   301.37631     -4.5047531      0              58.564923      2029.1873    
   1580000   296.14354     -4.5541097      0              57.420492      2104.8432    
   1581000   299.41557     -3.3513016      0              59.308046      2146.331     
   1582000   303.34555     -4.2330642      0              59.248719      2174.7626    
   1583000   307.9065      -6.5748147      0              57.861448      2028.178     
   1584000   283.90354     -4.7666732      0              54.646438      2071.17      
   1585000   293.6982      -4.9510881      0              56.511773      2090.5199    
   1586000   306.17924     -4.9026291      0              59.172167      2056.8313    
   1587000   298.07057     -4.1642403      0              58.213635      2162.6831    
   1588000   296.49938     -4.8879233      0              57.161147      2137.0788    
   1589000   308.48574     -3.9649325      0              60.59255       2134.0871    
   1590000   298.83921     -3.6376895      0              58.901042      2154.7119    
   1591000   304.50934     -5.9235316      0              57.801801      2043.3023    
   1592000   294.87048     -5.3954985      0              56.312688      2019.1752    
   1593000   308.74051     -4.8424435      0              59.768354      2136.1268    
   1594000   309.70747     -4.2466775      0              60.566478      2149.874     
   1595000   297.30649     -4.4366288      0              57.781348      2125.3098    
   1596000   299.99483     -2.9343853      0              59.846185      2128.3305    
   1597000   297.17833     -4.1314225      0              58.059732      2111.9152    
   1598000   293.31483     -4.691535       0              56.691097      2026.852     
   1599000   297.86875     -5.0684014      0              57.267239      1961.1163    
   1600000   296.54507     -5.1604442      0              56.898187      2070.7113    
   1601000   300.24125     -4.1472035      0              58.684935      2029.2731    
   1602000   302.96531     -3.7670441      0              59.635165      2034.9831    
   1603000   304.1899      -4.160317       0              59.498164      2162.5821    
   1604000   289.25728     -3.4615166      0              57.071984      2129.9864    
   1605000   284.4457      -5.4802544      0              54.046315      2120.5671    
   1606000   300.18539     -4.2468993      0              58.57355       2028.2729    
   1607000   296.59704     -4.3414138      0              57.728093      2039.7439    
   1608000   298.28717     -3.9634915      0              58.459713      2151.9661    
   1609000   291.40619     -4.5405033      0              56.442705      2076.1525    
   1610000   288.09534     -3.241329       0              57.049009      2138.9333    
   1611000   296.71548     -3.9611012      0              58.133193      2100.7218    
   1612000   304.14249     -4.0132026      0              59.635357      2187.7549    
   1613000   292.60209     -4.9837428      0              56.249733      2029.3831    
   1614000   300.97366     -5.3830807      0              57.602332      1884.0673    
   1615000   300.13739     -2.875933       0              59.934471      2224.3351    
   1616000   301.71682     -4.7359684      0              58.404968      2154.1879    
   1617000   311.42005     -6.6432719      0              58.528279      1925.5288    
   1618000   292.96214     -5.7967717      0              55.512052      2093.7834    
   1619000   308.38125     -4.6298366      0              59.905778      2087.1121    
   1620000   305.14917     -3.7157281      0              60.143502      2151.105     
   1621000   311.21291     -3.0810503      0              62.047153      2200.8724    
   1622000   303.36113     -2.7829809      0              60.702063      2185.3358    
   1623000   298.90069     -5.0967252      0              57.454872      2041.8858    
   1624000   297.06501     -2.3471433      0              59.820298      2191.5609    
   1625000   307.70755     -4.240226       0              60.154402      2108.4483    
   1626000   298.10585     -3.1457823      0              59.239478      2148.4555    
   1627000   300.35028     -3.7175032      0              59.137454      2066.106     
   1628000   295.80658     -4.4982875      0              57.405798      2162.4153    
   1629000   290.96622     -5.1357982      0              55.755335      2025.4042    
   1630000   305.55032     -4.2110463      0              59.732133      2112.7368    
   1631000   305.35044     -4.1937998      0              59.707552      2071.8468    
   1632000   295.28679     -3.3338332      0              58.461476      2194.3472    
   1633000   300.75913     -4.6610357      0              58.279482      2150.7892    
   1634000   307.08524     -4.718352       0              59.546044      2180.7619    
   1635000   300.08167     -3.7876559      0              59.011088      2085.0241    
   1636000   297.37333     -5.6857894      0              56.546173      2094.7739    
   1637000   308.76421     -5.2762672      0              59.33949       2027.3212    
   1638000   305.24065     -4.1346291      0              59.743745      2100.1712    
   1639000   299.60118     -4.3395618      0              58.358629      2086.4648    
   1640000   305.13382     -3.6192828      0              60.236736      2136.9404    
   1641000   290.96705     -5.121575       0              55.769733      2090.2149    
   1642000   296.9298      -5.3274011      0              56.811743      1977.6322    
   1643000   309.96194     -3.8153736      0              61.051035      2083.1374    
   1644000   299.98349     -5.0589706      0              57.719226      1984.8438    
   1645000   295.34713     -5.3803478      0              56.427589      2056.3743    
   1646000   300.41984     -4.3125527      0              58.55696       2150.5893    
   1647000   303.26662     -4.0071772      0              59.458088      2142.8888    
   1648000   297.29569     -4.4723452      0              57.74337       2066.1507    
   1649000   290.97113     -4.2684837      0              56.623677      1973.3814    
   1650000   305.84635     -4.5696288      0              59.435502      2083.0582    
   1651000   296.48556     -4.0070726      0              58.039106      2151.8829    
   1652000   302.18917     -4.0826635      0              59.15712       2188.8422    
   1653000   301.36279     -3.1326175      0              59.934229      2081.7131    
   1654000   301.39739     -5.0369788      0              58.037107      1981.7017    
   1655000   298.68677     -4.7957278      0              57.711101      2107.0125    
   1656000   299.48059     -4.4821791      0              58.190775      2024.3292    
   1657000   306.42276     -4.8643741      0              59.261382      2024.3261    
   1658000   299.282       -4.7380273      0              57.893368      2108.4411    
   1659000   289.15187     -4.3266982      0              56.184743      2065.6819    
   1660000   292.70977     -2.6569286      0              58.599082      2202.091     
   1661000   300.50121     -4.8731666      0              58.013375      2070.1325    
   1662000   305.78865     -5.2015081      0              58.791547      2056.0181    
   1663000   303.84026     -3.8870465      0              59.698266      2116.5001    
   1664000   294.52863     -3.2118996      0              58.424747      2072.8011    
   1665000   308.39063     -4.4544701      0              60.083108      2020.6686    
   1666000   303.63449     -4.9190106      0              58.623239      2057.0417    
   1667000   293.92658     -4.5087673      0              57.001888      2085.7696    
   1668000   296.50172     -3.1270577      0              58.922503      2154.2414    
   1669000   297.9905      -3.086587       0              59.274533      2158.5876    
   1670000   310.16108     -4.9523936      0              59.955691      2180.9485    
   1671000   305.26464     -6.4824287      0              57.400966      2132.3438    
   1672000   300.16665     -3.851799       0              58.964729      2112.0708    
   1673000   305.57466     -2.7031095      0              61.245164      2216.8077    
   1674000   297.9395      -4.5055692      0              57.844878      2072.7997    
   1675000   304.00884     -3.4081916      0              60.2124        2110.9527    
   1676000   297.24669     -5.7939076      0              56.411553      2037.7849    
   1677000   288.65802     -6.4399507      0              53.968142      2023.284     
   1678000   302.43825     -3.7782363      0              59.513674      2193.9458    
   1679000   293.74017     -3.5432717      0              57.928372      2146.3667    
   1680000   291.70299     -5.0734444      0              55.971874      2029.1079    
   1681000   301.58179     -4.0731981      0              59.039478      2112.5464    
   1682000   300.04763     -4.9883127      0              57.803307      2025.9934    
   1683000   299.63143     -5.6854352      0              57.019086      2063.2246    
   1684000   295.91567     -4.2367199      0              57.690196      2114.6858    
   1685000   300.04624     -4.3558138      0              58.435515      2111.1661    
   1686000   304.97704     -3.3145405      0              60.508668      2092.1426    
   1687000   302.17046     -4.8278766      0              58.407993      2070.6914    
   1688000   307.00695     -4.4536221      0              59.794389      2115.6265    
   1689000   295.32439     -5.1966833      0              56.606495      2032.9612    
   1690000   298.553       -4.5018236      0              57.977011      2107.7395    
   1691000   298.26306     -5.7050576      0              56.713102      2020.3023    
   1692000   297.58043     -2.9098689      0              59.365434      2115.5011    
   1693000   298.43851     -5.405911       0              57.048965      2129.566     
   1694000   311.41892     -2.7817469      0              62.389567      2215.9493    
   1695000   303.21957     -4.0700719      0              59.385347      2142.1665    
   1696000   299.21448     -5.0245407      0              57.592724      2031.1475    
   1697000   298.41229     -4.5367324      0              57.912657      2134.8085    
   1698000   300.00327     -5.2283401      0              57.553997      2047.0271    
   1699000   285.91245     -6.0003078      0              53.833213      2010.7906    
   1700000   303.73199     -6.3445145      0              57.21814       2040.0943    
   1701000   292.91353     -5.620658       0              55.677992      2035.7389    
   1702000   305.70054     -3.5291937      0              60.445423      2130.0971    
   1703000   304.68279     -4.877343       0              58.884286      2065.4119    
   1704000   309.34187     -5.2277676      0              59.508879      1991.6442    
   1705000   292.90038     -4.2144755      0              57.081424      2010.7716    
   1706000   301.60925     -5.3052834      0              57.813139      2029.0469    
   1707000   308.64897     -4.397989       0              60.193653      2120.9056    
   1708000   288.12841     -4.596003       0              55.701256      2049.909     
   1709000   300.60456     -4.665647       0              58.242522      2083.8502    
   1710000   292.50189     -4.996181       0              56.216325      2027.7091    
   1711000   301.59605     -4.373355       0              58.742306      2163.4714    
   1712000   301.47055     -3.4213969      0              59.668001      2087.9659    
   1713000   298.75755     -5.0173193      0              57.504323      1976.336     
   1714000   304.05871     -4.4080349      0              59.222993      2164.08      
   1715000   294.04507     -5.3351042      0              56.200347      1957.2204    
   1716000   302.37336     -2.5289362      0              60.749394      2188.6986    
   1717000   308.22321     -1.6303853      0              62.872156      2226.6872    
   1718000   293.68563     -3.9019327      0              57.558299      2144.0769    
   1719000   296.17221     -6.1531966      0              55.827406      1960.1688    
   1720000   296.04794     -4.4856171      0              57.468979      2146.1501    
   1721000   292.15197     -3.9190936      0              57.220185      2101.8119    
   1722000   296.54258     -1.9787879      0              60.079323      2203.9767    
   1723000   306.8995      -5.1633971      0              59.062129      2204.5851    
   1724000   290.50504     -5.1435953      0              55.651026      2003.9049    
   1725000   305.7238      -4.8774625      0              59.102023      2038.7345    
   1726000   297.99243     -5.7901668      0              56.571357      2099.7965    
   1727000   290.49927     -6.3500043      0              54.44341       2115.0773    
   1728000   298.73534     -6.4611432      0              56.055852      1910.4519    
   1729000   303.78642     -4.3422537      0              59.231791      2073.2334    
   1730000   297.34714     -5.0352117      0              57.19127       2016.9605    
   1731000   303.47837     -4.0501006      0              59.459479      2153.9685    
   1732000   306.59563     -3.7997732      0              60.362161      2221.3637    
   1733000   297.50559     -4.218359       0              58.041283      2212.2419    
   1734000   302.01431     -4.9504922      0              58.252698      2075.8833    
   1735000   291.0469      -4.8355403      0              56.072477      2036.3207    
   1736000   301.29107     -5.2013086      0              57.85053       2087.3835    
   1737000   304.81176     -5.3906161      0              58.398004      2064.1287    
   1738000   293.67115     -4.7787652      0              56.678434      2075.8852    
   1739000   297.88776     -4.8695306      0              57.470088      2100.5131    
   1740000   289.01554     -4.1000538      0              56.382857      2162.8327    
   1741000   297.87988     -4.6500031      0              57.687967      2065.2217    
   1742000   304.17986     -5.3682421      0              58.288139      2078.9457    
   1743000   298.21468     -3.7466898      0              58.661344      2113.2826    
   1744000   300.56285     -6.9325839      0              55.966858      1973.3433    
   1745000   301.72196     -5.09425        0              58.047761      2085.4913    
   1746000   296.95885     -3.3314402      0              58.813785      2138.1167    
   1747000   299.61891     -5.396414       0              57.305488      2084.8485    
   1748000   289.97285     -4.840637       0              55.842612      2103.6309    
   1749000   309.70087     -4.6861232      0              60.125652      2220.9301    
   1750000   303.59085     -3.6956267      0              59.83749       2149.1481    
   1751000   303.26593     -3.7014129      0              59.763709      2118.2936    
   1752000   296.0789      -6.1581446      0              55.80293       1952.4799    
   1753000   300.68407     -5.1040052      0              57.820804      2077.3945    
   1754000   300.81774     -3.4047515      0              59.548031      2118.754     
   1755000   290.14998     -6.3413754      0              54.378942      2171.7716    
   1756000   285.62691     -5.9905845      0              53.78318       1915.8253    
   1757000   304.18984     -4.3641554      0              59.294313      2171.4599    
   1758000   299.5349      -2.6455673      0              60.038754      2066.77      
   1759000   296.95254     -4.3809302      0              57.762973      2035.0903    
   1760000   307.18769     -3.4509138      0              60.834923      2104.053     
   1761000   318.03625     -4.8799112      0              61.676227      2120.5096    
   1762000   290.52386     -6.2637532      0              54.534807      1995.1925    
   1763000   305.77119     -4.8208046      0              59.168597      2126.1602    
   1764000   292.89984     -5.9909855      0              55.304801      1956.2975    
   1765000   300.93404     -6.1812511      0              56.79587       2059.3517    
   1766000   303.15185     -6.4508561      0              56.990391      2091.8405    
   1767000   299.35779     -4.5446319      0              58.102623      1995.1853    
   1768000   294.70394     -4.4902573      0              57.183076      2037.919     
   1769000   306.20594     -5.8646441      0              58.21574       2076.1803    
   1770000   293.01643     -5.6905573      0              55.629629      2028.3823    
   1771000   297.10487     -6.038944       0              56.136839      1998.6134    
   1772000   292.87961     -5.4929144      0              55.798639      2028.2277    
   1773000   290.57361     -4.6736144      0              56.135357      2032.028     
   1774000   305.67181     -5.7065324      0              58.262072      2062.3021    
   1775000   305.6948      -4.813649       0              59.159767      2203.6812    
   1776000   304.7921      -5.3959479      0              58.388558      2021.1355    
   1777000   291.22508     -5.3697401      0              55.575565      1932.0931    
   1778000   310.59101     -4.0441203      0              60.953935      2147.8727    
   1779000   296.44123     -6.3383993      0              55.698502      1997.2455    
   1780000   297.80337     -5.3571995      0              56.964758      2003.7906    
   1781000   296.70344     -3.8423445      0              58.24943       2156.9972    
   1782000   304.52629     -4.2404943      0              59.488384      2117.2355    
   1783000   294.81639     -4.8831318      0              56.813736      2165.0737    
   1784000   301.67247     -4.4397354      0              58.691919      2136.3099    
   1785000   300.75249     -3.7773178      0              59.16181       2162.1039    
   1786000   305.81033     -3.7527096      0              60.244883      2213.4022    
   1787000   293.24632     -4.0566293      0              57.311665      2071.6646    
   1788000   308.1177      -4.1099836      0              60.370478      2155.5047    
   1789000   306.86731     -4.7624893      0              59.456299      2175.7494    
   1790000   302.90132     -4.4617086      0              58.92711       2142.2715    
   1791000   287.99841     -3.7706318      0              56.499422      2045.7711    
   1792000   301.72984     -3.0137369      0              60.129924      2087.6838    
   1793000   287.104       -4.0647842      0              56.018095      2110.4738    
   1794000   299.678       -4.8140621      0              57.900205      2094.9756    
   1795000   280.20424     -5.3675376      0              53.271413      2028.9071    
   1796000   309.97217     -5.2366685      0              59.631882      2169.0361    
   1797000   301.6658      -3.9830082      0              59.147249      2158.1218    
   1798000   303.27475     -6.0491244      0              57.417843      2139.7096    
   1799000   302.2875      -4.5902331      0              58.67013       2143.2183    
   1800000   298.84386     -3.970667       0              58.569037      2081.2757    
   1801000   303.24074     -5.9460396      0              57.51381       2123.9587    
   1802000   301.57546     -5.0876139      0              58.023739      2131.3442    
   1803000   298.70867     -4.3361305      0              58.175283      2135.4403    
   1804000   304.54639     -4.8626071      0              58.870478      2190.2962    
   1805000   301.87533     -6.0536294      0              57.120477      1970.4091    
   1806000   297.60316     -4.9908149      0              57.289247      2097.8267    
   1807000   308.26797     -4.2167177      0              60.295191      2020.4527    
   1808000   306.33874     -3.7503272      0              60.357848      2202.2145    
   1809000   302.50936     -3.3410511      0              59.96574       2103.4565    
   1810000   301.50106     -4.577069       0              58.518714      2008.6483    
   1811000   300.45914     -4.9565494      0              57.921188      2121.2204    
   1812000   306.26361     -2.579144       0              61.513308      2224.0355    
   1813000   301.37081     -3.0834639      0              59.985062      2118.622     
   1814000   306.40877     -4.6147001      0              59.508131      2031.3275    
   1815000   296.87834     -3.819414       0              58.308962      2160.7333    
   1816000   293.98206     -5.8792285      0              55.643036      2047.0423    
   1817000   304.80838     -4.6297346      0              59.158178      2043.2962    
   1818000   303.7184      -4.8669924      0              58.692817      2185.3179    
   1819000   285.32737     -4.2784466      0              55.432632      2035.5976    
   1820000   298.25468     -3.7323275      0              58.684078      2071.7831    
   1821000   298.17248     -3.9174879      0              58.481715      2161.033     
   1822000   298.84452     -5.0263747      0              57.513468      2090.6804    
   1823000   297.07047     -6.4834889      0              55.685095      2027.7134    
   1824000   295.21077     -4.4041991      0              57.375202      2107.1449    
   1825000   295.49699     -5.3240505      0              56.515246      1956.1342    
   1826000   304.14007     -5.81031        0              57.837745      2062.7522    
   1827000   296.33854     -3.2884516      0              58.726959      2055.9786    
   1828000   319.09058     -4.8028266      0              61.973953      2201.1657    
   1829000   299.64486     -3.8245512      0              58.882781      2169.0323    
   1830000   302.35006     -4.5468241      0              58.726631      2142.7251    
   1831000   292.21992     -4.165997       0              56.987502      2138.2057    
   1832000   301.29844     -4.9153809      0              58.137998      2014.5674    
   1833000   300.26567     -5.7563121      0              57.080938      2055.6535    
   1834000   294.15421     -5.1975834      0              56.360708      2183.8446    
   1835000   308.42598     -5.3819499      0              59.163026      2098.1092    
   1836000   293.05281     -3.6004663      0              57.727332      2228.7145    
   1837000   292.08372     -4.8347427      0              56.290253      2030.2975    
   1838000   305.91535     -3.5906626      0              60.428908      2046.6867    
   1839000   302.16992     -4.1715168      0              59.064239      2083.3457    
   1840000   292.49162     -5.7524762      0              55.457882      2058.2048    
   1841000   319.47445     -5.9328589      0              60.924255      2029.6953    
   1842000   286.26611     -4.6377906      0              55.269741      2098.4588    
   1843000   289.02646     -5.977973       0              54.507223      2062.3751    
   1844000   297.21833     -3.6313664      0              58.56816       2079.7027    
   1845000   295.66925     -2.8542631      0              59.021084      2175.7702    
   1846000   298.97889     -4.69437        0              57.873592      2140.8844    
   1847000   307.78456     -3.9511038      0              60.45964       2028.5187    
   1848000   290.38222     -3.9028109      0              56.866107      2127.1695    
   1849000   290.51581     -5.865969       0              54.930906      2102.4285    
   1850000   304.6321      -5.1534879      0              58.597534      2099.8363    
   1851000   299.05903     -6.6511901      0              55.933542      2053.9535    
   1852000   301.43254     -5.9911412      0              57.090301      2068.143     
   1853000   304.44152     -4.862437       0              58.848701      2078.1593    
   1854000   296.17223     -3.858341       0              58.122266      2106.7062    
   1855000   301.24048     -4.5908312      0              58.450418      2093.7571    
   1856000   298.3448      -3.5289786      0              58.906287      2129.1582    
   1857000   309.67647     -3.1943793      0              61.612288      2105.5938    
   1858000   296.48976     -3.4684502      0              58.578607      2208.576     
   1859000   309.64958     -5.0590296      0              59.742012      2137.5491    
   1860000   302.17054     -5.4642173      0              57.771669      2102.7608    
   1861000   296.39576     -4.7325094      0              57.294877      2098.7013    
   1862000   306.68142     -3.280746       0              60.899142      2090.5042    
   1863000   293.43855     -5.2868461      0              56.121678      2085.2944    
   1864000   286.82329     -4.6451141      0              55.37902       2203.588     
   1865000   297.70533     -4.3032223      0              57.998221      2020.8684    
   1866000   301.40595     -3.5805274      0              59.495352      2081.3393    
   1867000   301.84924     -3.5549242      0              59.613723      2147.4932    
   1868000   306.71689     -2.2674475      0              61.919863      2214.3366    
   1869000   294.43655     -4.6362745      0              56.981103      2092.064     
   1870000   296.67351     -5.1646906      0              56.92082       2066.2847    
   1871000   288.67322     -4.8268776      0              55.584396      2160.433     
   1872000   304.57464     -4.4830065      0              59.25599       2104.6351    
   1873000   298.94731     -5.030687       0              57.530667      1973.4568    
   1874000   304.39901     -5.3795667      0              58.322675      2070.9254    
   1875000   300.57843     -3.8758785      0              59.026822      2153.1553    
   1876000   303.0537      -2.5209548      0              60.899752      2124.7454    
   1877000   301.3282      -4.4759782      0              58.58363       2095.6947    
   1878000   305.10081     -5.2303176      0              58.618792      2119.2519    
   1879000   299.94466     -3.6938837      0              59.076187      2083.4005    
   1880000   296.26218     -2.9338854      0              59.065545      2208.3794    
   1881000   295.27309     -3.4375039      0              58.354938      2037.3295    
   1882000   302.36931     -4.0852215      0              59.192262      2178.1138    
   1883000   305.80626     -3.9507099      0              60.046032      2169.6443    
   1884000   294.7745      -2.861311       0              58.82679       2045.587     
   1885000   286.37372     -4.1221355      0              55.807916      2136.1779    
   1886000   294.40202     -4.3012436      0              57.308907      2069.8044    
   1887000   302.90091     -4.8194398      0              58.569292      2023.6398    
   1888000   297.68241     -4.6210566      0              57.675588      2006.2352    
   1889000   298.82984     -3.7942113      0              58.74256       2149.0363    
   1890000   302.39813     -3.2566175      0              60.026897      2213.8026    
   1891000   305.38795     -4.7585615      0              59.150639      2011.743     
   1892000   297.31215     -6.1011176      0              56.118044      2062.7723    
   1893000   302.54591     -5.2038541      0              58.110586      2120.1568    
   1894000   297.40733     -4.0186115      0              58.220468      2206.9246    
   1895000   302.60091     -4.3999867      0              58.925965      2109.8069    
   1896000   300.99444     -5.1550552      0              57.834706      2113.2378    
   1897000   291.09965     -4.0272235      0              56.891834      2176.3772    
   1898000   295.45074     -5.31746        0              56.512159      1979.7223    
   1899000   299.64277     -3.7201595      0              58.986734      2047.9712    
   1900000   295.48212     -4.2619638      0              57.574221      2155.3818    
   1901000   302.98472     -4.9877624      0              58.418508      2095.2442    
   1902000   305.86904     -5.2632386      0              58.746641      2111.2414    
   1903000   295.37648     -4.3563063      0              57.457772      2006.754     
   1904000   305.20401     -4.0793943      0              59.791312      2152.7976    
   1905000   297.26545     -5.0191683      0              57.190219      2012.1007    
   1906000   302.89702     -4.9195619      0              58.468355      2101.6714    
   1907000   303.12008     -4.5670785      0              58.867521      2134.0697    
   1908000   306.59121     -3.9550747      0              60.205935      2114.269     
   1909000   293.49424     -4.8538321      0              56.566345      2059.543     
   1910000   301.95584     -4.418747       0              58.772209      2096.5655    
   1911000   307.30494     -3.5873875      0              60.722986      2108.5223    
   1912000   302.47387     -5.2773006      0              58.022064      2096.5547    
   1913000   298.15977     -6.2758529      0              56.120691      2057.9928    
   1914000   311.11414     -5.0977501      0              60.009783      2101.9565    
   1915000   303.31465     -4.9380437      0              58.537273      2184.2346    
   1916000   297.23914     -4.7771787      0              57.426702      2122.2598    
   1917000   288.27618     -4.8673058      0              55.460877      2140.4144    
   1918000   303.92037     -4.355746       0              59.246331      2179.7219    
   1919000   300.77203     -4.7475142      0              58.195704      2021.3996    
   1920000   301.05721     -4.2085352      0              58.794362      2060.3182    
   1921000   300.30469     -2.9764082      0              59.869007      2220.7837    
   1922000   305.27905     -5.042633       0              58.843777      2192.0367    
   1923000   301.95927     -4.4996427      0              58.69203       2090.6868    
   1924000   308.18284     -4.7940906      0              59.700002      2170.7608    
   1925000   301.42703     -5.4901166      0              57.590173      2027.4516    
   1926000   290.53043     -3.1237768      0              57.676159      2224.3263    
   1927000   301.26245     -3.6378603      0              59.407988      2154.0396    
   1928000   312.05261     -2.9964797      0              62.307449      2261.7162    
   1929000   297.61706     -6.4510777      0              55.831891      2044.2198    
   1930000   292.35337     -5.2745686      0              55.906856      2086.4724    
   1931000   292.06437     -4.7975936      0              56.323352      1996.4501    
   1932000   295.96915     -4.3752873      0              57.562821      2117.5006    
   1933000   300.48634     -3.9468417      0              58.936588      2051.6922    
   1934000   306.12073     -4.9527873      0              59.109764      2191.8861    
   1935000   298.88355     -4.457714       0              58.090297      2158.0518    
   1936000   294.77993     -7.4137282      0              54.275509      1949.9664    
   1937000   293.67552     -5.4358774      0              56.022237      2145.4663    
   1938000   299.58658     -5.4650024      0              57.230134      2140.4245    
   1939000   299.40527     -4.4064473      0              58.250744      2183.2395    
   1940000   300.67311     -5.0485691      0              57.873947      2111.8417    
   1941000   300.90654     -4.9289626      0              58.042404      2112.5105    
   1942000   296.15179     -5.812933       0              56.163395      2057.8512    
   1943000   300.31868     -6.0608592      0              56.787485      2010.7758    
   1944000   295.66853     -3.4824507      0              58.392745      2021.1227    
   1945000   310.59268     -3.8605484      0              61.137857      2091.8317    
   1946000   298.7363      -5.1394869      0              57.377707      2031.3952    
   1947000   291.12365     -4.7374345      0              56.186644      2087.5209    
   1948000   303.19043     -5.8883773      0              57.560943      2024.3528    
   1949000   310.09211     -3.7107034      0              61.182947      2125.8938    
   1950000   297.96216     -4.9463987      0              57.40879       2119.3889    
   1951000   304.12591     -4.875977       0              58.769114      1955.9645    
   1952000   293.39262     -3.2159134      0              58.182998      2073.8811    
   1953000   305.49634     -6.0348301      0              57.897054      2080.5452    
   1954000   288.55136     -5.5441485      0              54.841621      1998.1939    
   1955000   298.33035     -4.2706403      0              58.161601      2095.3108    
   1956000   305.18654     -4.5773018      0              59.289749      2080.5172    
   1957000   303.41653     -4.6791856      0              58.817451      2112.7786    
   1958000   301.30852     -4.495691       0              58.559799      2092.6827    
   1959000   287.39234     -4.653536       0              55.489684      1994.67      
   1960000   308.75846     -2.3380153      0              62.27654       2139.8344    
   1961000   304.78514     -4.2144486      0              59.5686        2172.9807    
   1962000   299.28496     -3.7039678      0              58.928046      2075.8753    
   1963000   291.18867     -5.2241838      0              55.713502      2108.0336    
   1964000   294.42968     -4.5807937      0              57.035146      1924.7922    
   1965000   300.36754     -3.2049122      0              59.653657      2140.852     
   1966000   305.1417      -4.9278869      0              58.92978       2082.8421    
   1967000   305.81041     -4.5732427      0              59.424366      2039.9433    
   1968000   295.91318     -3.8318678      0              58.094528      2073.7335    
   1969000   302.00692     -5.7532435      0              57.448402      1969.9327    
   1970000   302.82187     -4.9401456      0              58.432046      2057.7787    
   1971000   296.1139      -3.8277801      0              58.14062       2162.821     
   1972000   301.54513     -4.6319904      0              58.473014      2136.9081    
   1973000   287.79785     -3.5197634      0              56.708318      2118.6704    
   1974000   305.42916     -2.2841151      0              61.633709      2134.3438    
   1975000   298.56279     -3.8807855      0              58.600099      2174.7066    
   1976000   296.42176     -4.9950541      0              57.037773      2070.3718    
   1977000   306.71957     -5.2298173      0              58.958054      2120.5024    
   1978000   296.61532     -5.4091346      0              56.664199      1978.6265    
   1979000   309.64188     -5.2699366      0              59.529493      2015.4646    
   1980000   290.84127     -4.4267893      0              56.438196      2103.8487    
   1981000   297.42828     -5.7768269      0              56.466636      1996.752     
   1982000   298.35094     -4.8774921      0              57.559058      2079.2582    
   1983000   298.55882     -5.618559       0              56.861495      2159.664     
   1984000   302.38439     -5.5647452      0              57.715893      2080.1107    
   1985000   299.57087     -5.1465942      0              57.545252      1977.5616    
   1986000   291.05268     -3.6056112      0              57.303616      2243.1866    
   1987000   290.03602     -4.3191992      0              56.37727       2069.802     
   1988000   301.30593     -5.4886552      0              57.566293      2016.6165    
   1989000   296.77019     -3.7456372      0              58.360105      2147.8489    
   1990000   303.54313     -4.6200753      0              58.903056      2122.815     
   1991000   309.44866     -3.8710675      0              60.887927      2124.925     
   1992000   296.89475     -3.7760087      0              58.355801      2159.4409    
   1993000   300.82314     -4.4443334      0              58.509579      2064.1782    
   1994000   294.60798     -4.6067347      0              57.046518      2043.7681    
   1995000   305.13139     -5.9888867      0              57.866623      1994.6528    
   1996000   293.69383     -3.6869819      0              57.774964      2073.7083    
   1997000   299.50146     -5.4643951      0              57.212927      2145.8741    
   1998000   300.4469      -5.6697854      0              57.20539       2029.9121    
   1999000   303.02364     -4.3662363      0              59.04818       2027.9627    
   2000000   301.08765     -5.5787811      0              57.430486      2085.0536    
   2000101   295.61796     -5.1112675      0              56.753346      2139.281     
Loop time of 13951.8 on 16 procs for 2000000 steps with 1620 atoms

Performance: 6.193 ns/day, 3.876 hours/ns, 143.350 timesteps/s
99.9% CPU use with 16 MPI tasks x 1 OpenMP threads

MPI task timing breakdown:
Section |  min time  |  avg time  |  max time  |%varavg| %total
---------------------------------------------------------------
Pair    | 10941      | 11912      | 12871      | 572.7 | 85.38
Bond    | 1.5565     | 1.6114     | 1.7068     |   3.4 |  0.01
Neigh   | 16.129     | 16.744     | 17.332     |  11.5 |  0.12
Comm    | 1007.2     | 1967.2     | 2939       |1410.9 | 14.10
Output  | 1.091      | 1.0915     | 1.0929     |   0.0 |  0.01
Modify  | 28.117     | 28.593     | 29.165     |   6.0 |  0.20
Other   |            | 24.48      |            |       |  0.18

Nlocal:         101.25 ave         109 max          95 min
Histogram: 2 1 2 1 1 6 0 1 0 2
Nghost:        5064.25 ave        5137 max        4998 min
Histogram: 1 0 4 2 3 1 2 1 1 1
Neighs:        51666.2 ave       59490 max       45955 min
Histogram: 3 3 0 2 2 1 1 1 2 1

Total # of neighbors = 826660
Ave neighs/atom = 510.28395
Ave special neighs/atom = 0
Neighbor list builds = 10399
Dangerous builds = 0
comm_modify cutoff 27.58
compute myRDF all rdf 1129 cutoff 22.58
fix 2 all ave/time 1 1 1 c_myRDF[*] file ljg2_nvt_40rdf.rdf mode vector
run 0 pre yes post no
Generated 0 of 0 mixed pair_coeff terms from geometric mixing rule
WARNING: Compute rdf cutoff less than neighbor cutoff - forcing a needless neighbor list build (src/compute_rdf.cpp:179)
Neighbor list info ...
  update every 1 steps, delay 0 steps, check yes
  max neighbors/atom: 200000, page size: 2000000000
  master list distance cutoff = 27
  ghost atom cutoff = 27.58
  binsize = 13.5, bins = 4 5 4
  4 neighbor lists, perpetual/occasional/extra = 3 1 0
  (1) pair lj/cut, perpetual
      attributes: half, newton on
      pair build: half/bin/newton
      stencil: half/bin/3d
      bin: standard
  (2) pair gauss/cut, perpetual, copy from (1)
      attributes: half, newton on
      pair build: copy
      stencil: none
      bin: none
  (3) pair gauss/cut, perpetual, copy from (1)
      attributes: half, newton on
      pair build: copy
      stencil: none
      bin: none
  (4) compute rdf, occasional
      attributes: half, newton on, cut 24.58
      pair build: half/bin/newton
      stencil: half/bin/3d
      bin: standard
Per MPI rank memory allocation (min/avg/max) = 3.053e+04 | 3.053e+04 | 3.053e+04 Mbytes
   Step          Temp          E_pair         E_mol          TotEng         Press     
   2000101   295.61796     -5.1112675      0              56.753346      2139.281     
Loop time of 4.38288e-06 on 16 procs for 0 steps with 1620 atoms

uncompute myRDF
unfix 2
write_data ljg2_nvt_40/ca_md.data nocoeff nofix
System init for write_data ...
Generated 0 of 0 mixed pair_coeff terms from geometric mixing rule
Neighbor list info ...
  update every 1 steps, delay 0 steps, check yes
  max neighbors/atom: 200000, page size: 2000000000
  master list distance cutoff = 27
  ghost atom cutoff = 27.58
  binsize = 13.5, bins = 4 5 4
  3 neighbor lists, perpetual/occasional/extra = 3 0 0
  (1) pair lj/cut, perpetual
      attributes: half, newton on
      pair build: half/bin/newton
      stencil: half/bin/3d
      bin: standard
  (2) pair gauss/cut, perpetual, copy from (1)
      attributes: half, newton on
      pair build: copy
      stencil: none
      bin: none
  (3) pair gauss/cut, perpetual, copy from (1)
      attributes: half, newton on
      pair build: copy
      stencil: none
      bin: none
Total wall time: 3:52:33
