region box block 0 52.794504272175 0 54.794296100667 0 45.195295323908
units metal
dimension 3
boundary p p p
atom_style full
create_box 1 box
Created orthogonal box = (0 0 0) to (52.794504 54.794296 45.195295)
  2 by 4 by 2 MPI processor grid
create_atoms 1 random 1620 45 box
Created 1620 atoms
  using lattice units in orthogonal box = (0 0 0) to (52.794504 54.794296 45.195295)
  create_atoms CPU = 0.002 seconds
mass 1 40.078
pair_style hybrid/overlay lj/cut 25 gauss/cut 25 gauss/cut 25
pair_coeff 1 1 lj/cut 0.009507177838705264 3.7584971993521488
pair_coeff 1 1 gauss/cut 1 -0.0597999248039827 5.991246456844763 0.601172550524922
pair_coeff 1 1 gauss/cut 2 0.0726183915985775 5.919659952808235 0.9307156951487607
run 1
WARNING: No fixes with time integration, atoms won't move (src/verlet.cpp:60)
Generated 0 of 0 mixed pair_coeff terms from geometric mixing rule
Neighbor list info ...
  update every 1 steps, delay 10 steps, check yes
  max neighbors/atom: 2000, page size: 100000
  master list distance cutoff = 27
  ghost atom cutoff = 27
  binsize = 13.5, bins = 4 5 4
  3 neighbor lists, perpetual/occasional/extra = 3 0 0
  (1) pair lj/cut, perpetual
      attributes: half, newton on
      pair build: half/bin/newton
      stencil: half/bin/3d
      bin: standard
  (2) pair gauss/cut, perpetual, copy from (1)
      attributes: half, newton on
      pair build: copy
      stencil: none
      bin: none
  (3) pair gauss/cut, perpetual, copy from (1)
      attributes: half, newton on
      pair build: copy
      stencil: none
      bin: none
Per MPI rank memory allocation (min/avg/max) = 6.992 | 6.997 | 7.003 Mbytes
   Step          Temp          E_pair         E_mol          TotEng         Press     
         0   0              4.0610219e+11  0              4.0610219e+11  1.9906207e+13
         1   0              4.0610219e+11  0              4.0610219e+11  1.9906207e+13
Loop time of 0.00876148 on 16 procs for 1 steps with 1620 atoms

Performance: 9.861 ns/day, 2.434 hours/ns, 114.136 timesteps/s
99.5% CPU use with 16 MPI tasks x 1 OpenMP threads

MPI task timing breakdown:
Section |  min time  |  avg time  |  max time  |%varavg| %total
---------------------------------------------------------------
Pair    | 0.0046982  | 0.0063483  | 0.0084319  |   1.2 | 72.46
Bond    | 5.43e-07   | 6.1975e-07 | 7.61e-07   |   0.0 |  0.01
Neigh   | 0          | 0          | 0          |   0.0 |  0.00
Comm    | 0.00022278 | 0.0023137  | 0.0039793  |   1.9 | 26.41
Output  | 5.0162e-05 | 5.2342e-05 | 5.4503e-05 |   0.0 |  0.60
Modify  | 1.035e-06  | 1.1647e-06 | 1.317e-06  |   0.0 |  0.01
Other   |            | 4.534e-05  |            |       |  0.52

Nlocal:         101.25 ave         129 max          80 min
Histogram: 2 1 1 3 2 4 2 0 0 1
Nghost:        5081.94 ave        5153 max        5018 min
Histogram: 3 0 1 4 1 2 1 1 1 2
Neighs:        51649.4 ave       69701 max       37573 min
Histogram: 1 0 5 2 1 1 4 1 0 1

Total # of neighbors = 826390
Ave neighs/atom = 510.11728
Ave special neighs/atom = 0
Neighbor list builds = 0
Dangerous builds = 0
thermo 1000
neighbor 2.0 bin
neigh_modify every 1 delay 0 check yes one 200000 page 2000000000
minimize 0.0 1.0e-8 100 1000
Generated 0 of 0 mixed pair_coeff terms from geometric mixing rule
Neighbor list info ...
  update every 1 steps, delay 0 steps, check yes
  max neighbors/atom: 200000, page size: 2000000000
  master list distance cutoff = 27
  ghost atom cutoff = 27
  binsize = 13.5, bins = 4 5 4
  3 neighbor lists, perpetual/occasional/extra = 3 0 0
  (1) pair lj/cut, perpetual
      attributes: half, newton on
      pair build: half/bin/newton
      stencil: half/bin/3d
      bin: standard
  (2) pair gauss/cut, perpetual, copy from (1)
      attributes: half, newton on
      pair build: copy
      stencil: none
      bin: none
  (3) pair gauss/cut, perpetual, copy from (1)
      attributes: half, newton on
      pair build: copy
      stencil: none
      bin: none
Per MPI rank memory allocation (min/avg/max) = 2.29e+04 | 2.29e+04 | 2.29e+04 Mbytes
   Step          Temp          E_pair         E_mol          TotEng         Press     
         1   0              4.0610219e+11  0              4.0610219e+11  1.9906207e+13
       101   0             -49.473616      0             -49.473616      753.79739    
Loop time of 0.904936 on 16 procs for 100 steps with 1620 atoms

99.6% CPU use with 16 MPI tasks x 1 OpenMP threads

Minimization stats:
  Stopping criterion = max iterations
  Energy initial, next-to-last, final = 
      406102192731.826  -49.2468106271885  -49.4736164132377
  Force two-norm initial, final = 1.611544e+13 0.4698777
  Force max component initial, final = 9.7311218e+12 0.060278742
  Final line search alpha, max atom move = 1 0.060278742
  Iterations, force evaluations = 100 111

MPI task timing breakdown:
Section |  min time  |  avg time  |  max time  |%varavg| %total
---------------------------------------------------------------
Pair    | 0.51905    | 0.67014    | 0.86363    |  10.2 | 74.05
Bond    | 5.3479e-05 | 5.651e-05  | 6.465e-05  |   0.0 |  0.01
Neigh   | 0.0081652  | 0.0099702  | 0.012303   |   1.0 |  1.10
Comm    | 0.025369   | 0.22102    | 0.37384    |  17.9 | 24.42
Output  | 3.627e-05  | 3.6971e-05 | 3.9109e-05 |   0.0 |  0.00
Modify  | 0          | 0          | 0          |   0.0 |  0.00
Other   |            | 0.003711   |            |       |  0.41

Nlocal:         101.25 ave         122 max          82 min
Histogram: 1 1 0 3 3 3 3 1 0 1
Nghost:        5093.12 ave        5148 max        5033 min
Histogram: 1 1 0 4 3 1 2 0 1 3
Neighs:        51646.9 ave       66623 max       41826 min
Histogram: 2 2 3 3 1 2 1 1 0 1

Total # of neighbors = 826351
Ave neighs/atom = 510.09321
Ave special neighs/atom = 0
Neighbor list builds = 7
Dangerous builds = 0
timestep 0.0005
fix 1 all nvt temp 300.0 300.0 $(100.0*dt)
fix 1 all nvt temp 300.0 300.0 0.050000000000000002776
fix removeMomentum all momentum 1 linear 1 1 1
dump 1 all custom 1000 ljg2_nvt_45/ca.traj id mol type mass x y z
dump_modify 1 sort id
run 2000000
Generated 0 of 0 mixed pair_coeff terms from geometric mixing rule
Per MPI rank memory allocation (min/avg/max) = 2.289e+04 | 2.289e+04 | 2.289e+04 Mbytes
   Step          Temp          E_pair         E_mol          TotEng         Press     
       101   0             -49.473616      0             -49.473616      753.79739    
      1000   163.34734     -45.569955      0             -11.385902      1109.9254    
      2000   303.07142     -13.022733      0              50.401682      1710.5755    
      3000   296.03454     -8.22005        0              53.731742      2034.78      
      4000   297.4512      -5.147657       0              57.100603      2134.1169    
      5000   296.51581     -6.5838822      0              55.468625      1954.3752    
      6000   307.5086      -2.9876689      0              61.365324      2236.3901    
      7000   304.84374     -4.5303096      0              59.265002      2124.099     
      8000   296.18396     -5.809062       0              56.173999      2070.6214    
      9000   296.45055     -6.7468993      0              55.291953      2046.6891    
     10000   301.71883     -5.9920044      0              57.149351      2047.3354    
     11000   299.30889     -3.7252358      0              58.911787      2010.643     
     12000   298.84712     -4.1722672      0              58.368119      2066.1621    
     13000   292.8365      -4.8696594      0              56.412873      2000.5112    
     14000   299.49702     -6.4403992      0              56.235994      2007.546     
     15000   298.23137     -3.9066722      0              58.504856      2062.8295    
     16000   307.56166     -4.9945742      0              59.369523      2085.3929    
     17000   300.67063     -3.599034       0              59.322962      2100.2749    
     18000   292.60772     -3.9876087      0              57.247045      1991.8224    
     19000   296.92988     -4.5703385      0              57.568823      2042.8569    
     20000   298.06877     -4.5933365      0              57.784163      2148.6502    
     21000   299.60326     -5.4272042      0              57.271421      2145.2729    
     22000   305.23973     -4.0289033      0              59.849278      2076.2508    
     23000   291.58978     -5.201909       0              55.819718      2083.7976    
     24000   307.22075     -3.5697598      0              60.722995      2180.0371    
     25000   295.28014     -6.3962364      0              55.39768       1986.6036    
     26000   295.77868     -5.6441696      0              56.254079      2124.2914    
     27000   295.03599     -5.6483061      0              56.094518      2138.207     
     28000   302.00157     -3.6070256      0              59.5935        2110.7582    
     29000   293.04787     -5.5723691      0              55.754396      2047.4117    
     30000   301.11804     -3.553701       0              59.461927      2036.2159    
     31000   303.08646     -4.3295075      0              59.098055      2222.0511    
     32000   301.35042     -4.90172        0              58.162538      2156.6318    
     33000   301.90164     -4.2093695      0              58.970242      2095.3123    
     34000   309.85564     -4.0931616      0              60.751002      2146.9457    
     35000   299.60544     -5.4340967      0              57.264984      2001.5401    
     36000   300.58251     -4.0129759      0              58.89058       2085.9907    
     37000   293.34849     -3.8845092      0              57.505166      2116.9432    
     38000   304.76253     -4.0761018      0              59.702215      2062.1467    
     39000   302.13426     -5.5972458      0              57.631048      2176.2076    
     40000   294.44623     -3.6093585      0              58.010043      2212.2219    
     41000   308.05384     -4.2302569      0              60.23684       2158.8425    
     42000   303.25737     -4.8967716      0              58.566557      2163.5215    
     43000   298.61056     -2.9815307      0              59.509351      2111.8058    
     44000   308.10446     -3.9443455      0              60.533344      2150.2801    
     45000   290.61118     -2.6583692      0              58.158464      2178.324     
     46000   291.71531     -4.4617062      0              56.586191      2085.5275    
     47000   295.96036     -5.467309       0              56.46896       1989.5028    
     48000   299.56065     -1.8525351      0              60.837174      2136.4763    
     49000   305.20234     -5.5929385      0              58.27742       1938.9099    
     50000   307.7282      -3.311287       0              61.087663      2152.9295    
     51000   300.78445     -4.5166293      0              58.429186      2183.6146    
     52000   291.70335     -4.0779803      0              56.967414      2145.9434    
     53000   303.47981     -4.1929141      0              59.316966      2089.5627    
     54000   300.88022     -5.5797035      0              57.386155      2032.6691    
     55000   298.79179     -4.1898533      0              58.338954      2121.5678    
     56000   302.17379     -3.9650233      0              59.271543      2116.5294    
     57000   298.39876     -3.1126991      0              59.333858      2134.3994    
     58000   297.27452     -5.6607843      0              56.550501      1962.335     
     59000   297.01542     -5.1897541      0              56.967309      2152.2672    
     60000   312.03001     -3.8423832      0              61.456816      2147.3521    
     61000   280.30214     -5.6422324      0              53.017206      2003.2342    
     62000   304.10332     -6.0350977      0              57.605266      2036.4034    
     63000   298.75608     -2.6862092      0              59.835125      2106.7552    
     64000   307.81706     -3.1816239      0              61.235922      2152.0518    
     65000   309.06973     -2.8036153      0              61.876079      2186.0684    
     66000   287.67082     -3.5666923      0              56.634806      2126.0308    
     67000   306.69837     -4.4026341      0              59.7808        2146.2569    
     68000   291.98529     -6.2076904      0              54.896705      2056.0999    
     69000   292.89732     -4.4207336      0              56.874525      2000.5034    
     70000   304.70745     -5.3659785      0              58.400812      2059.274     
     71000   295.87448     -5.0197334      0              56.898562      2151.1592    
     72000   305.69464     -5.1344797      0              58.838901      2096.9493    
     73000   289.88588     -5.2390049      0              55.426043      1997.6338    
     74000   292.43055     -4.1852288      0              57.012348      1984.6345    
     75000   304.33545     -5.2227979      0              58.466144      2083.3298    
     76000   301.75992     -6.710607       0              56.439347      1981.9977    
     77000   302.5786      -4.3925357      0              58.928746      2156.4575    
     78000   306.98663     -4.2150276      0              60.028733      2106.8181    
     79000   296.73623     -2.9536883      0              59.144948      2172.857     
     80000   312.4491      -5.0489977      0              60.337905      2183.7707    
     81000   299.37558     -4.8585263      0              57.792452      2120.3139    
     82000   302.95288     -5.8818688      0              57.51774       2088.411     
     83000   300.64269     -5.0791706      0              57.836979      2041.459     
     84000   299.62633     -2.4110861      0              60.292367      2195.0719    
     85000   291.28101     -5.0062794      0              55.950732      2119.6766    
     86000   302.10683     -5.4224203      0              57.800133      2060.6024    
     87000   290.07549     -5.7938297      0              54.910898      2131.3386    
     88000   301.03183     -5.4112702      0              57.586316      2110.3174    
     89000   291.7356      -5.4206232      0              55.631519      2042.4509    
     90000   290.94429     -4.7493234      0              56.137221      2054.1907    
     91000   297.28396     -5.0366395      0              57.176621      2120.0967    
     92000   289.51856     -4.5817795      0              56.0064        1983.2715    
     93000   298.35991     -5.7658715      0              56.672556      2106.6483    
     94000   298.82877     -4.0303687      0              58.506178      2078.298     
     95000   298.80025     -4.2563525      0              58.274225      2152.2557    
     96000   303.94936     -5.2059555      0              58.402189      2137.6497    
     97000   298.33509     -6.0164319      0              56.416802      2055.6502    
     98000   305.70765     -5.3140538      0              58.662051      2097.8634    
     99000   304.95043     -4.8864411      0              58.931199      2140.8903    
    100000   290.59796     -3.7437594      0              57.070308      2072.8544    
    101000   301.33154     -3.6983505      0              59.361957      2153.0365    
    102000   311.75114     -5.3190174      0              59.921821      1961.5465    
    103000   301.92846     -5.0108793      0              58.174346      2075.6669    
    104000   292.53451     -3.8311783      0              57.388155      2184.4704    
    105000   307.75942     -4.2884858      0              60.116998      2150.4159    
    106000   295.23848     -5.806224       0              55.978974      2062.2506    
    107000   299.19197     -3.791369       0              58.821186      2172.7814    
    108000   308.52263     -5.9072226      0              58.657979      2151.4793    
    109000   300.65215     -5.0902529      0              57.827876      2046.3087    
    110000   303.79854     -4.3643764      0              59.212205      2156.8613    
    111000   298.68682     -3.7197986      0              58.787043      2117.1928    
    112000   291.17892     -6.1116052      0              54.824041      2055.8253    
    113000   309.19196     -2.0752323      0              62.630041      2162.9589    
    114000   297.22342     -5.5005341      0              56.700058      2014.8438    
    115000   302.48714     -3.8417093      0              59.460432      2151.5362    
    116000   295.75886     -4.3027345      0              57.591365      2086.3818    
    117000   299.23513     -4.3605357      0              58.26105       2196.598     
    118000   297.7787      -5.2808252      0              57.03597       2118.7133    
    119000   307.88037     -5.3115492      0              59.119245      2162.1842    
    120000   299.38717     -4.6897341      0              57.963671      1958.6421    
    121000   300.84351     -5.6614793      0              57.296696      1969.6262    
    122000   290.39246     -5.2925647      0              55.478498      2047.4596    
    123000   298.21161     -4.663939       0              57.743452      2122.5286    
    124000   305.08475     -4.6039118      0              59.241838      2298.8757    
    125000   307.1569      -4.4252016      0              59.85419       2165.0987    
    126000   301.38208     -5.65368        0              57.417204      2054.1003    
    127000   296.17059     -4.2881824      0              57.69208       2114.6578    
    128000   303.5368      -4.680726       0              58.84108       2067.3832    
    129000   303.7127      -4.904991       0              58.653626      2180.5016    
    130000   311.2827      -4.9553823      0              60.187425      1970.9297    
    131000   303.73459     -5.5418171      0              58.021381      2067.4157    
    132000   299.5684      -4.49856        0              58.19277       2086.5139    
    133000   291.1704      -4.2459604      0              56.687902      2187.4427    
    134000   308.21816     -5.912098       0              58.589387      2052.8626    
    135000   298.69905     -4.131771       0              58.377628      2114.0113    
    136000   305.11047     -4.3778478      0              59.473285      2066.6222    
    137000   296.4828      -4.0028566      0              58.042744      2183.3628    
    138000   297.39758     -5.6019839      0              56.635054      2096.7928    
    139000   307.5247      -5.6676923      0              58.68867       2056.9948    
    140000   302.21132     -4.8672917      0              58.377128      2066.8965    
    141000   303.53623     -3.792632       0              59.729054      2167.5798    
    142000   305.32237     -2.788231       0              61.107245      2053.1609    
    143000   297.11517     -4.7409131      0              57.437026      1967.4294    
    144000   307.55424     -5.7612173      0              58.601328      2091.1748    
    145000   301.50949     -6.1893059      0              56.908241      2027.758     
    146000   299.26383     -4.8462444      0              57.781348      2085.3398    
    147000   293.29675     -4.1521395      0              57.22671       2132.9973    
    148000   312.15425     -3.4278179      0              61.89738       2199.1253    
    149000   310.65763     -4.0410405      0              60.970958      2149.6497    
    150000   293.79425     -4.804802       0              56.67816       2167.5649    
    151000   293.93515     -4.0999961      0              57.412452      2105.0092    
    152000   294.22149     -2.4397751      0              59.132597      2130.7966    
    153000   303.3989      -3.5340749      0              59.958872      2089.7448    
    154000   307.92516     -4.3732231      0              60.066946      2154.8047    
    155000   306.90263     -4.6449512      0              59.58123       2035.8698    
    156000   299.47527     -4.3937648      0              58.278076      2069.4757    
    157000   304.72916     -4.9160576      0              58.855277      2030.1544    
    158000   312.10846     -4.7342631      0              60.581353      2125.2997    
    159000   296.90836     -4.9590273      0              57.175632      2142.1694    
    160000   295.05533     -4.2862567      0              57.460613      2143.0535    
    161000   300.3219      -2.797417       0              60.0516        2124.3007    
    162000   309.68344     -5.0195678      0              59.78856       2101.8818    
    163000   306.13254     -4.7164401      0              59.348583      2158.8875    
    164000   296.65502     -5.1605743      0              56.921067      2071.1141    
    165000   301.37922     -3.2700185      0              59.800266      2161.4672    
    166000   302.91964     -5.2748395      0              58.117812      2055.1129    
    167000   308.45461     -5.4939909      0              59.056975      1986.2545    
    168000   295.08397     -4.2214719      0              57.531392      2094.4667    
    169000   297.14103     -4.5247235      0              57.658626      2149.3659    
    170000   293.62138     -5.0192743      0              56.42751       2111.9764    
    171000   297.76268     -4.9774976      0              57.335947      2058.6851    
    172000   301.13025     -5.1416875      0              57.876494      2071.2727    
    173000   287.56713     -5.1763409      0              55.003458      2061.3318    
    174000   299.23643     -5.980568       0              56.64129       2090.5908    
    175000   304.67395     -5.5902706      0              58.169509      2105.7989    
    176000   307.02128     -6.4670374      0              57.783973      2076.8817    
    177000   301.71653     -5.3966479      0              57.744227      2065.3643    
    178000   299.85238     -5.6280944      0              57.122666      1937.7205    
    179000   304.9137      -4.9868897      0              58.823064      2023.4898    
    180000   288.84523     -4.9233147      0              55.523955      2088.9378    
    181000   307.16585     -3.829628       0              60.451636      2197.1047    
    182000   309.42032     -5.1501021      0              59.60296       2127.9163    
    183000   302.11437     -4.3086046      0              58.915527      2063.486     
    184000   304.12172     -5.8179796      0              57.826233      1940.0446    
    185000   287.64793     -3.1831171      0              57.013591      2089.1139    
    186000   306.11565     -5.9526502      0              58.108837      1981.0198    
    187000   295.8788      -3.1865618      0              58.732638      2189.8397    
    188000   309.66706     -3.1748454      0              61.629853      2156.8867    
    189000   298.63064     -5.5371424      0              56.957941      2016.5681    
    190000   299.38436     -6.3765354      0              56.276281      2041.1667    
    191000   298.61073     -4.2027126      0              58.288204      2116.0437    
    192000   306.86875     -4.7868922      0              59.432199      2113.2842    
    193000   296.81473     -3.9977806      0              58.117283      2169.8392    
    194000   303.60229     -5.475388       0              58.060123      2031.3111    
    195000   295.55193     -3.5655323      0              58.285264      2075.4493    
    196000   300.90682     -5.6425273      0              57.328898      2117.9089    
    197000   310.82176     -5.9937393      0              59.052606      2048.3524    
    198000   300.41086     -4.7285575      0              58.139077      2040.3496    
    199000   295.76093     -3.5894863      0              58.305047      2156.9132    
    200000   296.04756     -2.9973701      0              58.957147      2226.8237    
    201000   296.34207     -4.8772673      0              57.138883      2077.1175    
    202000   300.93353     -3.476311       0              59.500703      2127.8437    
    203000   304.2165      -4.8754126      0              58.788635      2087.0685    
    204000   292.20986     -3.6962774      0              57.455115      2201.9663    
    205000   294.2811      -5.0681132      0              56.516733      2115.2538    
    206000   306.56451     -4.101725       0              60.053698      2044.3858    
    207000   295.22564     -3.3774476      0              58.405063      2220.3432    
    208000   304.06015     -4.7814796      0              58.849848      2090.6055    
    209000   304.50171     -3.7921473      0              59.931588      2117.3019    
    210000   292.90941     -4.7073775      0              56.590412      1982.3624    
    211000   295.45245     -5.650399       0              56.179578      2083.0479    
    212000   306.21505     -5.1773152      0              58.904975      2118.071     
    213000   293.19542     -6.2078589      0              55.149785      2119.2703    
    214000   307.97528     -5.5203023      0              58.930355      2003.6027    
    215000   306.21169     -3.5001734      0              60.581412      2060.4567    
    216000   304.23592     -4.9324955      0              58.735616      2097.5237    
    217000   307.98105     -5.5464374      0              58.905426      2106.472     
    218000   291.36532     -4.8196403      0              56.155014      1980.9845    
    219000   300.88132     -5.097553       0              57.868536      2202.4715    
    220000   301.83392     -5.2005018      0              57.964939      2010.68      
    221000   292.86456     -3.8099344      0              57.47847       2047.2744    
    222000   302.52934     -5.1125554      0              58.198417      2053.9511    
    223000   297.66316     -6.5201361      0              55.77248       1963.4043    
    224000   297.46234     -5.672066       0              56.578525      2094.967     
    225000   301.6643      -3.8378797      0              59.292065      2183.8464    
    226000   308.8357      -4.9037769      0              59.726942      2036.3658    
    227000   290.70514     -4.3004954      0              56.536001      2205.5891    
    228000   293.94782     -5.0175627      0              56.497536      2030.1959    
    229000   297.29669     -3.2923938      0              58.923532      2165.1663    
    230000   295.35059     -5.0695991      0              56.739061      2024.2017    
    231000   307.68157     -3.6446195      0              60.744571      2133.6023    
    232000   310.17866     -5.0127845      0              59.898978      2145.1424    
    233000   304.24665     -3.5283037      0              60.142055      2062.8902    
    234000   295.62956     -3.5678963      0              58.299144      2064.0702    
    235000   305.69932     -5.658847       0              58.315514      2091.6709    
    236000   296.28808     -4.4505505      0              57.5543        2232.5631    
    237000   299.28668     -5.1963765      0              57.435997      2078.6774    
    238000   298.40854     -4.6340129      0              57.814592      2052.7191    
    239000   302.0927      -4.258557       0              58.96104       2118.8614    
    240000   299.39552     -6.3185019      0              56.336649      2093.0306    
    241000   295.32103     -5.0407065      0              56.761768      2094.3554    
    242000   300.00253     -4.1415182      0              58.640663      2080.1285    
    243000   299.12522     -4.2417368      0              58.356848      2156.6909    
    244000   298.76785     -4.6809137      0              57.842884      2027.946     
    245000   300.62157     -4.9731493      0              57.938581      2027.3572    
    246000   302.34447     -4.9002161      0              58.372068      2077.9637    
    247000   311.37498     -4.3418294      0              60.820291      2137.8608    
    248000   294.5074      -4.5290409      0              57.103163      2088.2532    
    249000   297.68565     -6.7672717      0              55.530052      1976.356     
    250000   307.45869     -4.9419986      0              59.400551      2075.1301    
    251000   308.72958     -4.5607732      0              60.047738      2150.5542    
    252000   304.64616     -4.743041       0              59.010923      2047.1726    
    253000   292.76152     -5.4852962      0              55.781543      2019.3089    
    254000   296.51693     -3.7319042      0              58.320839      2277.3822    
    255000   304.03275     -4.1093144      0              59.516281      2089.1419    
    256000   309.06933     -5.1664381      0              59.513173      2048.4431    
    257000   298.99873     -3.6174589      0              58.954656      2113.5153    
    258000   305.92588     -5.6601237      0              58.361651      1990.2087    
    259000   297.2674      -3.0261751      0              59.183621      2248.9356    
    260000   297.90172     -3.927814       0              58.414727      2230.6805    
    261000   298.18642     -4.719727       0              57.682393      2138.2241    
    262000   290.06348     -3.9598658      0              56.742349      2118.2662    
    263000   301.43292     -3.4929392      0              59.588584      2230.5543    
    264000   298.12336     -4.589127       0              57.799797      2125.2055    
    265000   296.24064     -4.7624373      0              57.232487      2154.2576    
    266000   303.45122     -4.2823866      0              59.22151       2170.5554    
    267000   304.61008     -4.6771336      0              59.069281      2127.713     
    268000   289.63758     -3.5800021      0              57.033085      2077.6267    
    269000   300.3182      -4.6816846      0              58.166558      2110.6111    
    270000   295.82611     -3.5061209      0              58.402053      2106.0697    
    271000   300.9881      -4.6306329      0              58.3578        2014.7917    
    272000   295.97078     -4.4971784      0              57.441271      2126.1193    
    273000   291.20203     -4.935071       0              56.005411      2059.7325    
    274000   308.27479     -4.102915       0              60.41042       2122.4851    
    275000   302.18809     -5.3841931      0              57.855366      2079.1754    
    276000   298.65442     -5.8392949      0              56.660765      2004.6068    
    277000   298.00632     -4.1740752      0              58.190356      2064.4094    
    278000   293.47041     -5.251136       0              56.164055      1972.0138    
    279000   303.98802     -4.8487085      0              58.767526      2121.1954    
    280000   304.79447     -4.154069       0              59.630932      2106.3686    
    281000   297.11454     -3.2278491      0              58.949957      2171.3783    
    282000   298.7054      -5.3725338      0              57.138195      2049.3328    
    283000   295.95068     -4.2642955      0              57.669947      2103.016     
    284000   292.90216     -3.4929134      0              57.803359      2015.6005    
    285000   297.04539     -5.2968612      0              56.866473      2048.6293    
    286000   293.36157     -4.6489672      0              56.743447      2014.882     
    287000   306.01185     -6.3045257      0              57.735241      2122.2338    
    288000   285.51603     -4.0003454      0              55.750216      2123.0258    
    289000   296.5387      -3.0664014      0              58.990897      2272.6596    
    290000   301.65141     -4.2554863      0              58.871761      2073.0043    
    291000   308.26933     -3.6226883      0              60.889504      2163.0122    
    292000   301.30959     -4.5607774      0              58.494936      2145.4771    
    293000   302.5448      -4.5732321      0              58.740976      2086.4203    
    294000   295.22749     -4.6545901      0              57.12831       2118.6943    
    295000   300.61819     -4.4897433      0              58.421279      2053.3732    
    296000   311.20287     -3.3444774      0              61.781624      2135.0604    
    297000   296.32071     -4.168044       0              57.843636      2103.1342    
    298000   299.77337     -6.2230546      0              56.51117       2141.017     
    299000   290.96808     -5.1714594      0              55.720063      2033.8562    
    300000   307.50217     -3.6236234      0              60.728025      2118.0984    
    301000   296.57068     -3.3330418      0              58.73095       2083.1574    
    302000   298.94122     -5.2880966      0              57.271983      2046.109     
    303000   304.32192     -5.5462713      0              58.139838      2144.8395    
    304000   292.4191      -5.710939       0              55.484243      2069.8542    
    305000   293.35301     -5.1297493      0              56.260872      2048.0513    
    306000   289.50017     -5.5453796      0              55.038951      2008.7382    
    307000   296.00158     -5.376863       0              56.568031      2080.5811    
    308000   304.87417     -6.3335411      0              57.46814       2024.4634    
    309000   299.06216     -3.1039623      0              59.481427      2139.1096    
    310000   293.28981     -3.2147861      0              58.162611      2039.4984    
    311000   301.54269     -4.8933908      0              58.211104      2050.7153    
    312000   302.2895      -3.9994657      0              59.261316      2144.9681    
    313000   305.60937     -4.2957012      0              59.659835      2074.4254    
    314000   312.16059     -4.7824273      0              60.544099      2112.9949    
    315000   292.8963      -4.7265211      0              56.568525      2096.1938    
    316000   293.51263     -3.8837274      0              57.540299      2111.6721    
    317000   307.7389      -5.551332       0              58.849856      2118.0077    
    318000   292.31139     -5.6355708      0              55.537069      2080.5125    
    319000   303.60164     -5.366505       0              58.16887       2040.1924    
    320000   287.87804     -4.2793192      0              55.965545      2052.1798    
    321000   289.26469     -4.3876288      0              56.147422      2161.1339    
    322000   305.97243     -5.5952117      0              58.436304      2057.874     
    323000   289.65628     -2.5912671      0              58.025733      2191.4995    
    324000   297.04359     -4.8727861      0              57.290172      2219.1438    
    325000   307.00679     -4.570428       0              59.67755       2068.6769    
    326000   299.87772     -3.4889373      0              59.267126      2129.4226    
    327000   307.29232     -5.4527266      0              58.855006      2061.0536    
    328000   293.41575     -3.0605396      0              58.343212      2189.8864    
    329000   299.82035     -4.7406177      0              58.003439      2048.5915    
    330000   290.42902     -3.9967575      0              56.781956      2159.3857    
    331000   299.44258     -3.9622642      0              58.702736      2132.4623    
    332000   308.16788     -4.9567952      0              59.534168      2156.6958    
    333000   294.68957     -4.0083645      0              57.661963      2139.484     
    334000   308.72666     -4.4269235      0              60.180977      2085.9267    
    335000   295.62633     -3.2379863      0              58.628379      2100.9658    
    336000   297.24903     -4.01108        0              58.19487       2131.9286    
    337000   298.39028     -4.6995255      0              57.745256      2080.4475    
    338000   300.6811      -5.8705943      0              57.053593      2163.7672    
    339000   297.58388     -4.4586638      0              57.817363      1965.4478    
    340000   295.23669     -5.2615376      0              56.523287      1997.0718    
    341000   309.60004     -3.0511755      0              61.739497      2315.9359    
    342000   303.23839     -5.1758413      0              58.283516      1995.6467    
    343000   302.03316     -3.6434841      0              59.563653      2170.268     
    344000   300.21684     -4.9700101      0              57.857022      2015.4833    
    345000   311.6074      -4.0284614      0              61.182297      2079.5192    
    346000   304.28116     -2.8568118      0              60.820768      2228.5621    
    347000   304.09009     -4.4551857      0              59.182408      2104.4787    
    348000   301.40697     -4.5407889      0              58.535304      2080.7028    
    349000   307.41294     -5.6318687      0              58.701106      2042.8501    
    350000   294.90171     -4.7573606      0              56.957361      1985.4509    
    351000   301.90959     -3.5269137      0              59.654362      2174.2918    
    352000   311.68815     -4.0506489      0              61.177008      2104.3599    
    353000   300.7378      -3.8357534      0              59.1003        2158.4706    
    354000   307.74152     -4.5616108      0              59.840126      2163.8733    
    355000   301.18549     -5.7517979      0              57.277944      2000.3983    
    356000   296.18151     -2.6487755      0              59.333773      2055.827     
    357000   308.34677     -4.246669       0              60.28173       2159.8202    
    358000   298.62454     -6.2392525      0              56.254554      1969.9322    
    359000   291.07526     -4.0454788      0              56.868473      2162.7053    
    360000   305.06245     -3.4197474      0              60.421335      2122.9283    
    361000   308.81261     -4.0125148      0              60.613371      2167.1702    
    362000   301.55364     -5.0935477      0              58.013239      2011.1138    
    363000   302.48087     -6.0962458      0              57.204584      2081.6739    
    364000   304.69124     -4.628026       0              59.135372      2061.2563    
    365000   306.7086      -3.9321903      0              60.253386      2110.2097    
    366000   309.08445     -2.9026376      0              61.780138      2150.3431    
    367000   285.40905     -3.8406735      0              55.887499      2027.7557    
    368000   302.15925     -6.2231707      0              57.010354      2022.5235    
    369000   295.27908     -6.0695031      0              55.724192      2053.4989    
    370000   295.50167     -5.3596869      0              56.48059       2091.2839    
    371000   307.06439     -6.1467201      0              58.113313      2090.5       
    372000   296.29539     -5.8489251      0              56.157456      2051.0846    
    373000   297.49685     -4.3750207      0              57.882791      2090.8275    
    374000   300.87796     -3.9056753      0              59.05971       2101.6922    
    375000   302.54666     -6.2727315      0              57.041866      1993.9501    
    376000   296.61031     -5.4464826      0              56.625802      2082.3789    
    377000   297.46344     -6.3407872      0              55.910035      1954.5905    
    378000   305.72278     -4.2465373      0              59.732734      2095.6758    
    379000   298.91229     -4.395205       0              58.158819      2029.2445    
    380000   298.06805     -3.4361871      0              58.941163      2131.1042    
    381000   309.04187     -3.9522547      0              60.72161       2150.5906    
    382000   312.46614     -4.7675378      0              60.62293       2155.4788    
    383000   298.96398     -6.1735935      0              56.391248      2002.0405    
    384000   293.80761     -3.8327425      0              57.653014      2150.8019    
    385000   306.68596     -3.8030771      0              60.37776       2117.4432    
    386000   304.45732     -6.1218879      0              57.592558      2030.769     
    387000   293.15843     -4.9687166      0              56.381187      2012.1638    
    388000   296.04023     -5.6148869      0              56.338096      2082.5761    
    389000   294.39565     -4.4029532      0              57.205864      2108.3464    
    390000   298.03806     -2.7537823      0              59.617291      2134.9893    
    391000   284.87384     -6.2799907      0              53.336178      2102.093     
    392000   304.92163     -4.1663421      0              59.645271      2070.6248    
    393000   307.63596     -4.7688013      0              59.610844      2099.3121    
    394000   306.36863     -4.7141833      0              59.400246      2111.3767    
    395000   298.82916     -4.4663409      0              58.070287      2120.9325    
    396000   288.43586     -4.2252193      0              56.13638       1946.6965    
    397000   291.89907     -4.3213629      0              56.76499       2076.7324    
    398000   299.88744     -3.7480649      0              59.010031      2114.5601    
    399000   296.78886     -4.8403049      0              57.269345      2089.7597    
    400000   299.33226     -2.547111       0              60.094802      2248.1042    
    401000   303.24088     -4.7824367      0              58.677441      2065.1255    
    402000   300.97953     -4.0082721      0              58.978369      2092.944     
    403000   294.78137     -4.5786691      0              57.110869      2033.6834    
    404000   293.60978     -2.3788064      0              59.065551      2148.6102    
    405000   293.41152     -4.5619661      0              56.840901      2071.8095    
    406000   294.11316     -4.3422628      0              57.207438      2114.4672    
    407000   291.72424     -6.4502769      0              54.59949       2016.7755    
    408000   293.01087     -5.8914984      0              55.427523      2105.1528    
    409000   308.90367     -3.5202373      0              61.124705      2124.857     
    410000   297.18013     -4.8776204      0              57.313911      2122.9535    
    411000   294.31276     -3.9938097      0              57.597662      2105.3135    
    412000   290.86374     -3.803034       0              57.066653      2095.7925    
    413000   312.50732     -4.3715641      0              61.027522      2109.9874    
    414000   300.10029     -5.9785209      0              56.82412       1964.839     
    415000   301.09517     -4.9467945      0              58.064046      2054.4947    
    416000   296.395       -4.215472       0              57.811755      2076.7168    
    417000   307.37918     -4.6692721      0              59.656638      2076.9638    
    418000   314.96267     -4.7268096      0              61.186113      2080.5391    
    419000   292.15998     -4.4889726      0              56.651981      2167.3417    
    420000   313.98755     -4.4583638      0              61.250494      2142.9528    
    421000   286.29918     -3.6994426      0              56.21501       2068.9031    
    422000   301.03428     -4.4869125      0              58.511187      2093.6391    
    423000   304.42277     -4.1636962      0              59.543519      2163.2393    
    424000   301.49175     -3.4968875      0              59.596947      2117.7141    
    425000   294.89255     -3.0581165      0              58.654688      2123.3757    
    426000   295.15163     -4.6288707      0              57.138153      2108.7041    
    427000   297.8275      -5.6459416      0              56.681066      2074.9137    
    428000   287.07275     -6.5439681      0              53.532371      1944.5753    
    429000   305.37164     -4.8006004      0              59.105186      2195.615     
    430000   303.1286      -4.4466767      0              58.989704      2062.9207    
    431000   295.47347     -3.23879        0              58.595585      2181.9126    
    432000   297.10191     -4.7909879      0              57.384174      1986.0671    
    433000   307.60223     -5.7964         0              58.576188      2152.1693    
    434000   311.40035     -5.2954897      0              59.871938      2098.8313    
    435000   286.24798     -4.8499352      0              55.053802      2060.6884    
    436000   303.73809     -5.8739438      0              57.689987      2093.953     
    437000   295.00876     -4.3495194      0              57.387605      2115.8255    
    438000   297.82809     -5.913629       0              56.413504      1984.3065    
    439000   301.54449     -5.5464377      0              57.558434      2103.9472    
    440000   307.47143     -4.4818522      0              59.863362      2034.6151    
    441000   306.8842      -6.2864479      0              57.935877      1873.1589    
    442000   300.64067     -4.8536857      0              58.062041      1980.9528    
    443000   293.12411     -5.2533258      0              56.089395      2023.4941    
    444000   303.18333     -3.5273263      0              59.920508      2175.967     
    445000   303.87295     -3.076927       0              60.515226      2291.9458    
    446000   295.57856     -4.3639156      0              57.492452      2119.7597    
    447000   305.41988     -4.4690384      0              59.446844      2085.7926    
    448000   297.99413     -5.9217088      0              56.44017       2040.7726    
    449000   296.12691     -5.075524       0              56.895598      2002.5923    
    450000   298.32834     -4.9070029      0              57.524818      2076.1477    
    451000   308.00508     -4.8500644      0              59.606829      2092.0953    
    452000   292.10093     -6.108631       0              55.019966      1980.1051    
    453000   293.50759     -5.5673213      0              55.855651      2064.2398    
    454000   299.27779     -4.7660789      0              57.864436      2035.9171    
    455000   299.14111     -5.8265037      0              56.775406      1982.5837    
    456000   301.59587     -4.8607531      0              58.25487       2080.9186    
    457000   298.00093     -3.6697381      0              58.693564      2090.779     
    458000   299.91555     -4.4968607      0              58.267119      2163.2717    
    459000   304.71723     -3.5170824      0              60.251756      2174.3996    
    460000   304.47927     -5.0454479      0              58.673591      1991.7705    
    461000   304.93988     -5.1379315      0              58.6775        1999.4102    
    462000   303.64862     -5.7899451      0              57.755262      2029.1943    
    463000   304.90676     -4.9482672      0              58.860233      1997.0245    
    464000   295.54178     -5.4558399      0              56.392831      2067.5031    
    465000   300.28516     -4.9000653      0              57.941262      2139.3798    
    466000   308.12719     -4.2353346      0              60.247112      2131.4019    
    467000   304.19723     -2.8728637      0              60.787152      2137.6749    
    468000   299.63512     -5.3600755      0              57.345218      2101.7844    
    469000   300.31661     -4.3691959      0              58.478713      2030.5984    
    470000   286.80437     -3.4058399      0              56.614335      2112.4141    
    471000   300.78769     -6.0777304      0              56.868763      2123.6036    
    472000   294.867       -4.9995003      0              56.707957      2030.8344    
    473000   290.89258     -4.6659589      0              56.209764      2067.1912    
    474000   309.37686     -2.6160487      0              62.127921      2205.6944    
    475000   295.85315     -4.5369035      0              57.376929      2185.2745    
    476000   293.52775     -2.9779073      0              58.449284      2169.0294    
    477000   298.49304     -4.8108356      0              57.655453      2112.7501    
    478000   297.37171     -5.9214176      0              56.310208      2008.9171    
    479000   293.89834     -5.6795887      0              55.825155      2057.416     
    480000   294.59384     -4.8186824      0              56.831612      2052.3077    
    481000   306.39283     -5.0592182      0              59.060276      2018.2473    
    482000   298.28216     -5.5184955      0              56.903662      2028.226     
    483000   313.00629     -5.3958942      0              60.107612      2072.2215    
    484000   300.69132     -4.3150853      0              58.611242      2132.1805    
    485000   295.92491     -3.4364173      0              58.492433      2245.3236    
    486000   295.04152     -4.0993049      0              57.644676      2100.0358    
    487000   305.83996     -4.6211173      0              59.382677      2073.9025    
    488000   299.11125     -4.5845225      0              58.01114       2165.252     
    489000   312.42424     -5.4293381      0              59.952361      2089.6517    
    490000   298.88193     -3.76446        0              58.783213      2089.3032    
    491000   287.71497     -4.0308857      0              56.179852      2051.0109    
    492000   287.14146     -6.0788275      0              54.011891      2146.9638    
    493000   308.34756     -4.2659269      0              60.262637      2083.2806    
    494000   296.63631     -4.9076189      0              57.170106      2123.0195    
    495000   299.09373     -5.2304615      0              57.361533      2031.1559    
    496000   295.3892      -2.1302138      0              59.686526      2173.5295    
    497000   300.7606      -3.4396677      0              59.501156      2148.3769    
    498000   301.90247     -5.250733       0              57.929053      2091.9385    
    499000   306.32399     -5.1747481      0              58.93034       2090.6145    
    500000   302.03352     -4.3572958      0              58.849917      2182.7103    
    501000   302.28592     -5.0444078      0              58.215624      2160.2579    
    502000   306.04065     -3.9914679      0              60.054325      2119.1906    
    503000   294.88458     -3.225253       0              58.485884      2050.0197    
    504000   301.869       -5.9479006      0              57.224881      2016.617     
    505000   295.338       -5.3909216      0              56.415104      2068.779     
    506000   297.69464     -4.4394627      0              57.859741      2148.3986    
    507000   298.37107     -5.239076       0              57.201687      2106.404     
    508000   306.58583     -4.9688716      0              59.191012      2087.5479    
    509000   304.29813     -3.9766295      0              59.704503      2110.6707    
    510000   305.31892     -3.361368       0              60.533387      2170.3064    
    511000   294.67505     -4.2502201      0              57.417069      2051.035     
    512000   307.37762     -5.5944176      0              58.731165      2075.2883    
    513000   295.31008     -5.7036392      0              56.096543      2099.5905    
    514000   301.20316     -5.6320273      0              57.401413      2129.9466    
    515000   295.82479     -3.9473792      0              57.960517      2184.0093    
    516000   309.57378     -6.2808836      0              58.504295      1991.6621    
    517000   302.83696     -2.7710815      0              60.604267      2160.9736    
    518000   300.02222     -5.2458255      0              57.540477      2065.6112    
    519000   305.86886     -5.5451541      0              58.464688      2113.4518    
    520000   309.86055     -4.9492614      0              59.89593       2063.219     
    521000   308.45331     -2.160775       0              62.389919      2231.051     
    522000   293.86837     -3.7849604      0              57.713513      2146.6778    
    523000   306.50099     -4.9404505      0              59.201677      2080.5106    
    524000   300.97045     -5.2000764      0              57.784665      2033.4719    
    525000   288.35855     -5.2292319      0              55.116189      2084.8419    
    526000   303.06314     -5.8931038      0              57.529578      2058.7029    
    527000   301.50565     -4.6877657      0              58.408977      2109.8507    
    528000   303.07095     -4.3958866      0              59.02843       2199.741     
    529000   299.3176      -5.5274881      0              57.111358      2083.8617    
    530000   298.46641     -4.7126862      0              57.748029      2170.0756    
    531000   293.22416     -5.775502       0              55.588156      2043.5712    
    532000   304.09332     -4.4585479      0              59.179723      2092.1202    
    533000   300.05256     -4.4538041      0              58.338848      2149.8688    
    534000   296.01047     -5.8366027      0              56.110153      2061.6877    
    535000   290.24622     -4.3578461      0              56.382612      2042.7234    
    536000   284.35132     -5.5929668      0              53.913852      2057.6146    
    537000   299.06954     -3.3583054      0              59.228627      2092.4967    
    538000   306.17946     -6.009954       0              58.064887      2064.0291    
    539000   308.34372     -5.4414863      0              59.086274      2107.3887    
    540000   300.43376     -5.3083064      0              57.56412       1974.8925    
    541000   298.80329     -3.0308413      0              59.500373      2146.0783    
    542000   299.59711     -5.4645567      0              57.232783      1979.9825    
    543000   307.16426     -5.9026119      0              58.378321      1994.5621    
    544000   300.32658     -3.8314341      0              59.018562      2038.7883    
    545000   295.00196     -5.7614065      0              55.974296      2104.3157    
    546000   296.06504     -4.5297855      0              57.42839       2021.7722    
    547000   295.44906     -5.3984791      0              56.430788      2057.0146    
    548000   309.07704     -4.4127096      0              60.268514      2135.6676    
    549000   285.47189     -5.3031021      0              54.438221      2012.1853    
    550000   301.82955     -4.0574071      0              59.107119      2023.0034    
    551000   290.36175     -4.6655861      0              56.099049      2095.3332    
    552000   304.98353     -5.233777       0              58.590791      2033.8112    
    553000   302.56915     -5.1159955      0              58.203308      2120.3374    
    554000   299.64782     -5.2038321      0              57.504119      2191.9294    
    555000   297.42026     -4.715705       0              57.52608       2074.5323    
    556000   301.93022     -4.7612685      0              58.424324      2091.0316    
    557000   294.34994     -3.6291781      0              57.970073      2056.6055    
    558000   310.03989     -2.6776197      0              62.205102      2091.3678    
    559000   302.46266     -5.8267929      0              57.470226      2055.8964    
    560000   296.65642     -3.2551761      0              58.826757      2172.262     
    561000   300.34019     -3.1054208      0              59.747423      2191.9907    
    562000   290.82769     -3.4137928      0              57.44835       2095.3553    
    563000   299.11138     -4.4039371      0              58.191751      2055.0451    
    564000   292.7298      -5.0632353      0              56.196967      1955.0124    
    565000   297.43601     -3.7396059      0              58.505475      2163.7163    
    566000   298.51375     -3.9790145      0              58.491608      2149.1778    
    567000   291.919       -5.6582788      0              55.432246      1957.914     
    568000   292.56625     -4.6664056      0              56.559571      2125.6056    
    569000   297.80866     -4.4826986      0              57.840366      2090.3563    
    570000   297.32268     -4.3338746      0              57.88749       2214.1303    
    571000   305.00106     -4.9794429      0              58.848792      2110.0134    
    572000   308.21651     -5.1265453      0              59.374595      2091.068     
    573000   306.35606     -6.2178449      0              57.893955      2041.5583    
    574000   302.8389      -3.6613977      0              59.714357      2131.2443    
    575000   299.7783      -4.8267943      0              57.908462      2211.4812    
    576000   295.83713     -3.1221361      0              58.788343      2205.3253    
    577000   299.54608     -3.8217762      0              58.864884      2162.8485    
    578000   295.95955     -5.1682449      0              56.767853      2083.9808    
    579000   314.25292     -4.2345194      0              61.529873      2247.1698    
    580000   298.91552     -2.9556084      0              59.599093      2246.6364    
    581000   296.71338     -5.3707676      0              56.723087      2013.9674    
    582000   306.5601      -6.0494241      0              58.105075      2093.5413    
    583000   301.16917     -5.5183958      0              57.507932      2027.4991    
    584000   303.27733     -5.0503789      0              58.417127      2178.097     
    585000   309.64931     -4.2463805      0              60.554603      2157.75      
    586000   300.42883     -4.1767663      0              58.694628      2080.6699    
    587000   311.24142     -4.9526644      0              60.181503      2168.691     
    588000   298.47928     -6.3098987      0              56.153509      2004.6512    
    589000   296.52158     -3.5595175      0              58.494199      2129.3818    
    590000   297.21863     -3.7721757      0              58.427413      2033.5883    
    591000   299.80937     -3.1595888      0              59.582169      2095.4459    
    592000   298.15359     -5.7846134      0              56.610636      1976.4627    
    593000   302.68675     -4.6019723      0              58.741943      2043.312     
    594000   295.78268     -5.5660737      0              56.33301       2100.6644    
    595000   302.40515     -4.7797607      0              58.505224      2079.0256    
    596000   303.51858     -3.2124812      0              60.305511      2078.1587    
    597000   294.22932     -5.2305793      0              56.343431      2009.5522    
    598000   309.49101     -3.6241168      0              61.143739      2201.6195    
    599000   303.56594     -3.9216448      0              59.60626       2131.605     
    600000   293.27102     -6.2763197      0              55.097144      2105.8142    
    601000   302.87474     -5.2508573      0              58.132397      2084.3537    
    602000   299.41005     -3.6983762      0              58.959815      2222.7271    
    603000   299.23549     -4.7227054      0              57.898956      2138.9971    
    604000   287.72172     -6.0130593      0              54.199091      1995.8835    
    605000   302.09839     -4.218186       0              59.002602      2104.4607    
    606000   302.6328      -4.9096605      0              58.422965      2045.8546    
    607000   314.9337      -5.1530906      0              60.75377       2125.0163    
    608000   297.90984     -5.1788189      0              57.165421      2023.0742    
    609000   305.90805     -4.3586873      0              59.659356      2189.0311    
    610000   303.61798     -5.0283399      0              58.510456      2006.4642    
    611000   294.29965     -5.637931       0              55.950796      1941.8672    
    612000   295.23738     -4.3638697      0              57.421098      2132.9985    
    613000   295.51269     -4.6767368      0              57.165847      2068.2086    
    614000   307.13624     -4.799519       0              59.47555       2068.6435    
    615000   292.08509     -4.1389013      0              56.98638       2132.3661    
    616000   302.34327     -5.1618981      0              58.110136      2171.5387    
    617000   294.59448     -5.2911127      0              56.359314      2084.976     
    618000   293.93717     -5.9099847      0              55.602887      2063.3554    
    619000   301.85167     -5.0943332      0              58.074823      2045.1788    
    620000   297.84106     -4.5151998      0              57.814648      1946.3589    
    621000   290.71325     -4.7781751      0              56.060019      2160.3168    
    622000   299.40809     -4.3879346      0              58.269848      2169.5549    
    623000   293.80407     -3.1237951      0              58.361223      2259.3112    
    624000   303.02213     -4.9556003      0              58.4585        2073.6144    
    625000   289.94173     -5.0575257      0              55.61921       2050.8317    
    626000   310.36213     -5.7047815      0              59.245377      1988.2787    
    627000   296.79646     -3.4357778      0              58.675464      2178.4976    
    628000   290.53963     -3.6393981      0              57.162462      2038.4059    
    629000   292.12487     -4.9923128      0              56.141295      2008.4086    
    630000   287.41564     -4.2714995      0              55.876597      2213.5535    
    631000   305.06757     -4.6793238      0              59.16283       2068.5888    
    632000   294.95972     -4.9227162      0              56.804145      2032.2822    
    633000   303.19725     -4.5181928      0              58.932556      2104.5758    
    634000   301.42094     -6.1021936      0              56.976822      2106.9351    
    635000   292.3356      -4.9809854      0              56.196721      2073.116     
    636000   310.09632     -6.1445137      0              58.750017      2061.0818    
    637000   304.22065     -4.4107964      0              59.254121      2158.1784    
    638000   288.98474     -4.4731043      0              56.00336       2063.5928    
    639000   304.46395     -4.9748076      0              58.741025      2048.7293    
    640000   303.2036      -4.8627725      0              58.589303      2099.2771    
    641000   303.66223     -5.2285266      0              58.319529      2003.9838    
    642000   296.11733     -5.4228491      0              56.546268      2041.6178    
    643000   315.85017     -5.3620071      0              60.736645      2177.8183    
    644000   304.28911     -5.3902218      0              58.289021      2133.7887    
    645000   290.8237      -4.2384987      0              56.622809      2082.4907    
    646000   294.49537     -3.3359159      0              58.293771      2131.2449    
    647000   285.92198     -3.5478484      0              56.287666      2117.1988    
    648000   304.26963     -4.3611023      0              59.314066      2112.7385    
    649000   301.12725     -5.4732721      0              57.544283      1997.2914    
    650000   299.30849     -6.1000582      0              56.536881      2075.0064    
    651000   295.73749     -4.3632955      0              57.526333      2129.0898    
    652000   291.5539      -5.2742944      0              55.739824      2025.803     
    653000   298.73162     -4.0775747      0              58.43864       2094.7013    
    654000   292.67395     -4.1925381      0              57.055976      2093.2166    
    655000   303.80565     -5.1099236      0              58.468145      1995.6151    
    656000   295.24876     -3.8589993      0              57.92835       2156.3779    
    657000   303.67933     -3.903578       0              59.648055      2159.7438    
    658000   292.11218     -4.208157       0              56.922793      2072.2069    
    659000   297.63607     -4.2653462      0              58.021602      2179.2761    
    660000   299.81803     -2.7178962      0              60.025675      2073.6294    
    661000   312.76173     -4.4862196      0              60.966109      2165.574     
    662000   305.08116     -2.7996188      0              61.045378      2179.8181    
    663000   297.64455     -5.3795735      0              56.909149      2030.6422    
    664000   301.65185     -3.7826906      0              59.344647      2166.7678    
    665000   296.00174     -3.3033138      0              58.641613      2141.4079    
    666000   304.14814     -3.7070073      0              59.942734      2278.2722    
    667000   300.15849     -3.7319307      0              59.082888      2134.9016    
    668000   293.71134     -5.014886       0              56.450724      2033.1304    
    669000   294.76508     -4.2509241      0              57.435206      2160.8136    
    670000   300.15179     -6.6628034      0              56.150615      2089.7636    
    671000   297.09821     -7.52054        0              54.653849      2092.9391    
    672000   294.20577     -5.0729943      0              56.496086      2063.6299    
    673000   296.61323     -4.6222431      0              57.450653      2009.0333    
    674000   300.43868     -3.651963       0              59.221492      2194.4105    
    675000   301.25921     -2.9301945      0              60.114976      2193.6614    
    676000   296.70169     -4.8513866      0              57.240022      2072.9234    
    677000   290.46029     -4.4698135      0              56.315444      2066.3824    
    678000   308.89943     -4.1437395      0              60.500316      2156.3261    
    679000   314.98592     -4.9842814      0              60.933508      2028.128     
    680000   297.79231     -5.3252318      0              56.994412      2094.4103    
    681000   297.37025     -4.4927447      0              57.738575      2142.0879    
    682000   298.22882     -4.2520618      0              58.158933      2065.4366    
    683000   289.25696     -4.4623919      0              56.07104       2091.3919    
    684000   297.0448      -4.2197892      0              57.943421      2093.828     
    685000   290.31997     -3.8108944      0              56.944998      2156.0973    
    686000   295.40342     -5.2539336      0              56.565782      2122.9393    
    687000   307.88227     -6.2113239      0              58.219869      2053.2134    
    688000   295.55187     -4.7380008      0              57.112782      2046.1194    
    689000   307.3898      -5.0268288      0              59.301304      2081.4903    
    690000   298.1483      -3.2007462      0              59.193397      2099.7728    
    691000   306.63902     -4.7105389      0              59.460477      2056.6933    
    692000   303.01874     -4.3308286      0              59.082563      2172.6154    
    693000   288.29021     -3.0953589      0              57.23576       2070.7266    
    694000   313.46407     -3.5090457      0              62.090263      2066.2465    
    695000   299.63546     -4.4370284      0              58.268335      2032.0566    
    696000   307.41163     -5.4918264      0              58.840874      2061.9712    
    697000   296.78365     -6.0541614      0              56.054398      2069.6754    
    698000   287.18518     -4.5942053      0              55.505663      2062.4782    
    699000   298.55567     -4.551579       0              57.927815      1941.2958    
    700000   304.30899     -4.7641835      0              58.91922       2097.4089    
    701000   296.12348     -4.0338176      0              57.936586      2134.7475    
    702000   305.06032     -3.9748617      0              59.865775      2093.3024    
    703000   297.67238     -4.6730945      0              57.621451      2215.2439    
    704000   303.4413      -3.3376863      0              60.164135      2161.5089    
    705000   299.10551     -5.0917283      0              57.502733      2040.8853    
    706000   289.76816     -3.6658168      0              56.974596      2152.8988    
    707000   308.57198     -6.1098611      0              58.465669      2069.1682    
    708000   297.82568     -5.5269188      0              56.799709      2006.3661    
    709000   297.7913      -3.9389752      0              58.380459      2067.32      
    710000   296.7589      -3.829606       0              58.273774      2121.4735    
    711000   303.43838     -3.8726296      0              59.62858       1982.3845    
    712000   299.21933     -3.0603305      0              59.557949      2187.7631    
    713000   296.29304     -4.8343912      0              57.171497      2034.4151    
    714000   295.39959     -4.8089745      0              57.00994       2047.0434    
    715000   299.0533      -4.6594055      0              57.924128      2184.4116    
    716000   291.23933     -4.4639045      0              56.484384      2087.7576    
    717000   296.00415     -4.9013956      0              57.044036      2072.197     
    718000   303.03064     -3.2624315      0              60.153449      2092.9072    
    719000   304.72004     -3.2774071      0              60.492019      2061.6961    
    720000   287.46813     -3.7413129      0              56.417767      2185.3563    
    721000   299.80073     -4.7216796      0              58.018272      2044.779     
    722000   299.13925     -4.9844925      0              57.617028      2139.3375    
    723000   306.54951     -5.0086867      0              59.143596      2093.8549    
    724000   302.36363     -4.2428009      0              59.033494      2248.6635    
    725000   309.29633     -5.2706488      0              59.456466      2052.6573    
    726000   304.04353     -4.5510601      0              59.076792      2107.171     
    727000   289.71626     -4.7594482      0              55.870104      1963.625     
    728000   303.85618     -4.5238439      0              59.064799      2109.3464    
    729000   298.26636     -4.9275787      0              57.491272      2146.2285    
    730000   293.35599     -5.3342271      0              56.05702       2087.8397    
    731000   305.52517     -3.6437481      0              60.294168      2161.307     
    732000   304.58474     -5.0260024      0              58.715108      2008.5146    
    733000   299.55249     -3.4817108      0              59.206291      2199.4839    
    734000   297.5967      -5.5879969      0              56.690711      2021.8305    
    735000   285.46894     -4.8037351      0              54.93697       2024.8805    
    736000   302.57528     -4.1703944      0              59.150192      2048.3442    
    737000   299.87239     -5.516188       0              57.238758      1976.1235    
    738000   295.78052     -3.7850823      0              58.11355       2157.7349    
    739000   290.0497      -2.7778958      0              57.921436      2191.57      
    740000   299.9409      -6.7509836      0              56.018302      1934.4414    
    741000   301.04007     -5.5417491      0              57.457561      2094.9398    
    742000   301.40686     -4.9508178      0              58.125251      2090.7582    
    743000   300.89043     -5.4006394      0              57.567355      2139.9635    
    744000   298.57695     -5.3320818      0              57.151765      2091.2184    
    745000   302.1198      -3.5378636      0              59.687404      2106.2161    
    746000   294.02494     -5.3259485      0              56.20529       2079.1101    
    747000   295.95811     -4.1177855      0              57.818012      2112.0918    
    748000   296.19633     -4.2601967      0              57.725454      2050.1909    
    749000   302.8746      -5.1089004      0              58.274326      2034.506     
    750000   306.49247     -5.1846567      0              58.95569       2050.5624    
    751000   309.4482      -2.8676676      0              61.89123       2182.2955    
    752000   297.53515     -5.5164134      0              56.749415      2038.9529    
    753000   304.94657     -5.8508604      0              57.965971      2008.9365    
    754000   315.97383     -4.9102197      0              61.21431       2038.4268    
    755000   298.05704     -4.6892268      0              57.685817      2035.4618    
    756000   296.25773     -4.4250567      0              57.573443      2059.704     
    757000   311.77189     -4.3882716      0              60.856911      2178.1094    
    758000   302.50567     -5.6123729      0              57.693647      2117.6026    
    759000   296.50594     -2.8931763      0              59.157266      2135.4461    
    760000   293.15111     -5.6640405      0              55.684329      2060.9033    
    761000   291.19805     -5.1295217      0              55.810127      2059.3177    
    762000   303.1607      -4.3093348      0              59.133765      2139.5817    
    763000   302.65897     -3.7519322      0              59.586168      2236.6057    
    764000   296.90548     -3.2750993      0              58.858955      2077.9992    
    765000   306.2239      -4.6062624      0              59.47788       2041.8508    
    766000   306.64101     -3.8175822      0              60.353849      2151.4998    
    767000   296.0062      -5.0903313      0              56.85553       2064.9663    
    768000   288.25571     -4.9058602      0              55.418039      2015.5822    
    769000   298.65286     -5.5008093      0              56.998923      1973.3811    
    770000   302.51361     -4.9600441      0              58.347637      2045.5259    
    771000   311.91617     -3.7408525      0              61.534523      2152.0256    
    772000   290.23594     -4.3829939      0              56.355313      2035.4461    
    773000   288.07052     -3.9220187      0              56.363126      2116.07      
    774000   306.34656     -5.7706175      0              58.339193      2053.5143    
    775000   302.81896     -5.2861075      0              58.085475      2034.8041    
    776000   284.26697     -5.4296138      0              54.059553      2037.2736    
    777000   301.68423     -5.1312097      0              58.002905      2068.3699    
    778000   294.6466      -5.1141771      0              56.547157      2147.5232    
    779000   293.44136     -4.7894199      0              56.619691      2065.4563    
    780000   288.35509     -4.5034494      0              55.841248      2181.6157    
    781000   306.52129     -3.4845749      0              60.661802      2305.6152    
    782000   300.68577     -3.9883215      0              58.936843      2066.1374    
    783000   307.22732     -4.9685054      0              59.325624      2134.5508    
    784000   295.99948     -5.9999199      0              55.944536      1987.1939    
    785000   293.21412     -5.0820165      0              56.27954       2088.9826    
    786000   301.94319     -6.1151517      0              57.073156      2055.5733    
    787000   297.53393     -5.3341652      0              56.931406      2055.4207    
    788000   300.59374     -4.5359488      0              58.369957      2111.1439    
    789000   295.60891     -5.3097845      0              56.552934      2006.2544    
    790000   289.97385     -4.7782293      0              55.905229      2098.2464    
    791000   303.14416     -5.3478354      0              58.091801      2130.6992    
    792000   303.4322      -4.429578       0              59.070338      2140.065     
    793000   305.45321     -0.93077679     0              62.992081      2300.6367    
    794000   302.77742     -3.1895099      0              60.173379      2209.9884    
    795000   300.14639     -5.4573447      0              57.354943      2019.4891    
    796000   306.5675      -4.3537354      0              59.802312      2076.9879    
    797000   288.42429     -4.9521656      0              55.407013      2048.6342    
    798000   297.43175     -4.7620897      0              57.482099      2098.653     
    799000   292.98608     -4.7048426      0              56.608991      2119.4468    
    800000   285.76309     -2.9844236      0              56.81784       2185.4486    
    801000   288.26598     -3.9897631      0              56.336286      2064.1028    
    802000   294.46247     -5.0648112      0              56.55799       1943.2183    
    803000   294.08453     -3.1933338      0              58.350376      2118.2882    
    804000   297.87011     -5.6730962      0              56.66283       1963.6247    
    805000   299.9099      -4.9152123      0              57.847585      2005.4592    
    806000   295.34472     -6.1859921      0              55.621441      1886.3112    
    807000   302.30095     -3.3993359      0              59.863841      2122.7067    
    808000   295.01897     -3.8673139      0              57.871948      2185.4457    
    809000   314.45067     -4.9474496      0              60.858327      2136.8218    
    810000   298.21651     -4.7347118      0              57.673706      2021.608     
    811000   301.21547     -6.3975244      0              56.638492      2061.9295    
    812000   307.76219     -5.0518689      0              59.354194      2102.9049    
    813000   294.07303     -3.1247705      0              58.416532      1988.1276    
    814000   292.61736     -3.9737339      0              57.262938      2146.055     
    815000   299.57382     -4.3926883      0              58.299777      2098.275     
    816000   307.94538     -5.0792465      0              59.365153      2063.5147    
    817000   306.086       -1.801076       0              62.254206      2215.1128    
    818000   297.39898     -5.6175997      0              56.619732      2133.2154    
    819000   306.68986     -6.1314941      0              58.05016       2058.457     
    820000   290.39678     -5.6692478      0              55.102718      1942.0216    
    821000   302.96775     -5.1449801      0              58.257741      2031.4052    
    822000   295.13967     -5.0319694      0              56.732551      1975.8821    
    823000   304.42142     -4.2806768      0              59.426256      2004.5981    
    824000   299.68315     -3.8373483      0              58.877995      2067.7621    
    825000   301.09758     -3.7374977      0              59.273848      2145.5537    
    826000   304.23248     -4.0105935      0              59.656799      2050.9176    
    827000   296.63178     -4.4489715      0              57.627805      2039.0278    
    828000   297.0256      -4.2154704      0              57.943723      2102.1748    
    829000   291.21942     -5.1675763      0              55.776545      2026.4671    
    830000   297.48176     -5.9665566      0              56.288098      2199.4591    
    831000   311.86434     -4.4533591      0              60.81117       2236.2098    
    832000   305.1843      -3.8251097      0              60.041472      2166.2868    
    833000   296.649       -5.1053961      0              56.974986      2027.8455    
    834000   289.28444     -3.9654213      0              56.573762      2179.0231    
    835000   302.7113      -5.5486199      0              57.800432      2051.6745    
    836000   295.02963     -4.1971102      0              57.544382      2143.2613    
    837000   293.37113     -5.8084605      0              55.585953      2088.0385    
    838000   311.04439     -4.7703465      0              60.322589      2170.9798    
    839000   311.55492     -4.2704358      0              60.92934       2005.8712    
    840000   293.7551      -4.1884064      0              57.286361      2029.6446    
    841000   302.62467     -4.3400726      0              58.990849      2095.8414    
    842000   295.60162     -4.818842       0              57.042352      2116.0039    
    843000   294.23333     -5.6306568      0              55.944191      2178.2552    
    844000   294.69609     -5.3054628      0              56.36623       2105.6171    
    845000   301.75535     -4.8705143      0              58.278484      2098.9121    
    846000   300.57781     -5.1496244      0              57.752948      2044.4839    
    847000   300.17266     -5.5711773      0              57.246608      2122.7757    
    848000   286.50578     -5.578101       0              54.379587      2029.4259    
    849000   303.70288     -6.0745755      0              57.481986      2061.6804    
    850000   293.16739     -4.4627624      0              56.889016      2012.6621    
    851000   308.80144     -4.8775593      0              59.745989      2131.7646    
    852000   291.53        -3.8279222      0              57.181194      2059.8465    
    853000   303.07589     -4.026796       0              59.398554      2118.9915    
    854000   304.35491     -4.0737545      0              59.61926       2191.9067    
    855000   300.43332     -3.8127137      0              59.05962       2223.1663    
    856000   306.30266     -3.7434006      0              60.357223      2134.47      
    857000   293.11161     -5.8207468      0              55.519358      2041.2525    
    858000   297.59451     -4.6105002      0              57.667751      2092.3225    
    859000   293.27146     -3.4253081      0              57.948249      2130.1314    
    860000   300.96319     -4.857711       0              58.12551       2105.7325    
    861000   305.07131     -4.3824633      0              59.460472      2054.5893    
    862000   305.981       -2.8327201      0              61.20059       2183.6422    
    863000   292.22181     -4.500481       0              56.653413      2103.3619    
    864000   302.49845     -4.6068904      0              58.697618      2037.6667    
    865000   287.56189     -5.136025       0              55.042677      2097.3066    
    866000   298.76097     -3.5225488      0              58.999809      2123.9341    
    867000   300.56023     -5.3876977      0              57.511196      2174.9651    
    868000   296.69083     -4.4107672      0              57.678368      2074.0466    
    869000   305.34691     -4.7465553      0              59.154056      2181.8058    
    870000   303.43129     -2.9674492      0              60.532277      2133.6206    
    871000   293.46839     -3.7287534      0              57.686014      2054.7935    
    872000   299.97084     -4.4985287      0              58.277022      2196.6457    
    873000   300.51115     -4.5870541      0              58.301567      2017.8943    
    874000   309.39859     -3.8308918      0              60.917623      2199.0156    
    875000   303.76948     -6.5805644      0              56.989935      2077.1742    
    876000   302.7458      -3.4917384      0              59.864533      2100.9016    
    877000   292.64718     -3.9370619      0              57.305849      2008.5061    
    878000   311.95285     -4.1315198      0              61.151532      2164.1682    
    879000   286.44904     -5.0993889      0              54.846425      2079.3529    
    880000   296.76157     -4.0920096      0              58.01193       2042.95      
    881000   300.62297     -3.7126595      0              59.199363      2045.5502    
    882000   311.80696     -4.1938353      0              61.058685      2124.3254    
    883000   309.6286      -3.6299456      0              61.166705      2009.7937    
    884000   293.67321     -6.2237432      0              55.233887      1942.2928    
    885000   292.35009     -2.3987965      0              58.781942      2143.3872    
    886000   298.5317      -1.9250535      0              60.549324      2134.8996    
    887000   295.1575      -3.5542289      0              58.214022      2081.2012    
    888000   306.13276     -6.0959704      0              57.969099      2161.3034    
    889000   295.95039     -4.7150323      0              57.21915       2114.1159    
    890000   295.24099     -3.9878409      0              57.797884      2150.9568    
    891000   300.92504     -5.1282903      0              57.846948      2125.3042    
    892000   301.35084     -4.6029839      0              58.461363      1994.1957    
    893000   308.97721     -6.3642979      0              58.296036      2126.8759    
    894000   297.39594     -5.5092541      0              56.727441      2024.0194    
    895000   296.67533     -4.1882412      0              57.89765       2018.7956    
    896000   299.55224     -3.7152752      0              58.972673      2041.4785    
    897000   294.06693     -2.926132       0              58.613893      2075.9771    
    898000   314.56555     -4.4468878      0              61.382928      2083.7445    
    899000   297.33406     -5.5660676      0              56.657678      2081.957     
    900000   299.8218      -5.0858095      0              57.65855       2096.8835    
    901000   300.28497     -3.6438563      0              59.197432      2117.7011    
    902000   302.17184     -4.6173749      0              58.618783      2142.4624    
    903000   287.99443     -3.9300503      0              56.339171      2075.47      
    904000   302.58567     -4.2931484      0              59.029613      2090.8594    
    905000   299.67507     -4.4564176      0              58.257236      2120.1809    
    906000   290.61151     -5.3125978      0              55.504304      1929.9729    
    907000   304.86569     -4.5399764      0              59.259931      2105.938     
    908000   293.24811     -3.5564361      0              57.812233      2162.5219    
    909000   307.59602     -4.3248817      0              60.046406      2067.3192    
    910000   314.64555     -3.9566283      0              61.88993       2215.6917    
    911000   313.99564     -3.5832689      0              62.127281      2159.3244    
    912000   312.064       -4.8509425      0              60.455369      2151.5123    
    913000   299.00526     -4.7992312      0              57.77425       2082.1045    
    914000   298.42806     -4.7036279      0              57.749061      2128.515     
    915000   305.18165     -5.0041099      0              58.861918      2116.5954    
    916000   304.77        -2.4446832      0              61.335198      2248.5932    
    917000   299.23937     -3.8750596      0              58.747413      2125.8205    
    918000   294.86702     -4.8697889      0              56.837674      2049.4055    
    919000   285.744       -5.595897       0              54.202372      2116.8785    
    920000   298.55795     -4.1944321      0              58.28544       2104.1887    
    921000   300.12287     -4.5311674      0              58.276199      2159.0524    
    922000   284.16196     -5.0442624      0              54.422929      2103.111     
    923000   307.95982     -4.5542541      0              59.893167      2115.0871    
    924000   306.98066     -5.3454334      0              58.897077      2092.843     
    925000   293.25654     -3.8647026      0              57.505731      2072.7691    
    926000   304.45352     -2.7866031      0              60.927048      2165.3873    
    927000   299.57545     -5.5441108      0              57.148695      2083.8761    
    928000   295.58145     -4.8075617      0              57.049412      2077.0688    
    929000   296.4918      -4.9441799      0              57.103303      2005.0445    
    930000   291.0419      -5.2492727      0              55.657699      2067.179     
    931000   300.61495     -3.1885735      0              59.72177       2101.2243    
    932000   295.57703     -4.4759816      0              57.380067      1946.3358    
    933000   293.6806      -3.0900112      0              58.369166      2176.5978    
    934000   294.53523     -3.6109577      0              58.02707       2114.4143    
    935000   301.43717     -4.8348471      0              58.247565      2055.1722    
    936000   302.24177     -4.3247119      0              58.92608       2138.0064    
    937000   296.09369     -4.701933       0              57.262238      2137.9535    
    938000   302.85827     -5.2029889      0              58.176819      1953.1894    
    939000   301.11434     -4.2662878      0              58.748564      2060.8673    
    940000   304.97518     -3.3322858      0              60.490533      2102.2034    
    941000   304.98632     -3.7908133      0              60.034337      2135.4031    
    942000   286.38757     -3.2904581      0              56.642493      2117.6744    
    943000   305.23208     -5.6233472      0              58.253234      1998.0364    
    944000   290.96226     -3.9041194      0              56.986186      2220.4027    
    945000   289.21378     -4.8386915      0              55.685706      2053.385     
    946000   311.66101     -4.7237947      0              60.498182      2014.3476    
    947000   303.65127     -4.0095314      0              59.53623       2131.3002    
    948000   307.10637     -3.4450526      0              60.823764      2165.1946    
    949000   304.02743     -4.9781456      0              58.646336      2085.2541    
    950000   301.68277     -3.7208957      0              59.412913      2168.0282    
    951000   291.81659     -4.2943085      0              56.774784      2176.1452    
    952000   302.99575     -5.4388484      0              57.969731      2168.5856    
    953000   297.05811     -4.8677921      0              57.298204      2136.0554    
    954000   305.89478     -4.3071091      0              59.708157      2083.3973    
    955000   298.69149     -6.1362499      0              56.371569      1932.0341    
    956000   300.14272     -5.0251699      0              57.786351      1962.3886    
    957000   298.70578     -4.6067732      0              57.904035      2014.5502    
    958000   307.57682     -5.4682207      0              58.89905       2104.1883    
    959000   296.47547     -3.860578       0              58.183489      2006.3482    
    960000   294.28601     -3.6776634      0              57.90821       2135.7407    
    961000   294.92574     -5.7426245      0              55.977126      2001.766     
    962000   303.13236     -3.0945156      0              60.342652      2156.868     
    963000   304.00365     -4.7803475      0              58.839156      2092.6095    
    964000   304.53738     -6.0800911      0              57.651108      2132.3244    
    965000   303.17916     -4.1577641      0              59.289198      2113.0567    
    966000   291.15965     -3.8078571      0              57.123755      2091.0245    
    967000   299.1695      -3.713183       0              58.894669      2105.7187    
    968000   307.33736     -3.6247984      0              60.69236       2087.382     
    969000   300.62065     -4.8782616      0              58.033275      2242.5702    
    970000   291.42363     -4.594217       0              56.39264       2010.7001    
    971000   293.72631     -2.77106        0              58.697684      2156.3528    
    972000   301.2797      -5.2592822      0              57.790176      2095.0554    
    973000   301.18202     -5.472296       0              57.55672       2063.0656    
    974000   302.05363     -6.236463       0              56.974957      2007.6129    
    975000   298.85084     -4.1170066      0              58.424158      2079.1848    
    976000   300.74583     -5.6807806      0              57.256953      2009.2059    
    977000   297.77143     -4.9825579      0              57.332718      2039.917     
    978000   296.6611      -5.122409       0              56.960504      2149.591     
    979000   296.97666     -3.8537007      0              58.295252      2015.5398    
    980000   305.21014     -6.0721726      0              57.799817      2064.6925    
    981000   305.26192     -4.462464       0              59.420362      2159.0257    
    982000   298.48584     -4.1176403      0              58.34714       2016.451     
    983000   307.50167     -4.2060112      0              60.145532      2060.2504    
    984000   299.76403     -6.1969846      0              56.535286      2007.2463    
    985000   293.20001     -5.0267203      0              56.331882      2034.1064    
    986000   293.87247     -4.8925793      0              56.606752      2106.5033    
    987000   301.10476     -5.4456772      0              57.567171      2027.835     
    988000   298.84465     -5.1291453      0              57.410725      1977.3282    
    989000   315.37334     -4.6380228      0              61.360843      2080.2891    
    990000   303.09936     -5.6329147      0              57.797347      2100.4659    
    991000   300.94194     -3.8529264      0              59.125847      2147.4052    
    992000   292.59286     -3.5487141      0              57.68283       2078.6139    
    993000   309.24725     -3.9847569      0              60.732088      2204.436     
    994000   295.2944      -5.0653408      0              56.731561      2075.6523    
    995000   301.14367     -3.1791115      0              59.841879      2171.744     
    996000   311.88586     -7.1360374      0              58.132995      1960.5648    
    997000   293.49541     -4.113056       0              57.307366      1914.6107    
    998000   304.23861     -5.6525604      0              58.016114      1998.3655    
    999000   298.6564      -4.2146992      0              58.285775      2092.1689    
   1000000   302.35122     -5.6451836      0              57.628513      2071.7548    
   1001000   291.70696     -3.8955105      0              57.15064       2185.2255    
   1002000   304.41843     -4.571812       0              59.134495      2086.4198    
   1003000   307.56535     -4.4418991      0              59.922972      2119.9149    
   1004000   300.61037     -6.5576477      0              56.351738      2098.7628    
   1005000   299.91009     -4.3346478      0              58.428189      2075.0534    
   1006000   299.80594     -4.3553391      0              58.385702      1998.8374    
   1007000   299.01934     -4.206895       0              58.369533      2035.4215    
   1008000   294.09623     -5.0915521      0              56.454606      2055.8006    
   1009000   293.82211     -6.4803092      0              55.008482      2020.8196    
   1010000   306.57001     -5.6521833      0              58.504389      2077.1021    
   1011000   296.57524     -6.3386038      0              55.726342      2027.3158    
   1012000   284.54131     -4.6763575      0              54.870221      2070.5934    
   1013000   309.95268     -5.3940411      0              59.47043       2111.3137    
   1014000   300.26644     -3.3226689      0              59.514743      2172.8097    
   1015000   298.22903     -6.1789767      0              56.232061      2115.6804    
   1016000   298.64401     -4.0769087      0              58.420972      2212.3504    
   1017000   304.29221     -5.4458589      0              58.234033      2087.9039    
   1018000   303.95436     -4.5100111      0              59.099178      2097.1986    
   1019000   306.93026     -4.9517804      0              59.280183      2039.5826    
   1020000   292.22061     -5.8850545      0              55.268589      2052.0702    
   1021000   293.59702     -4.6221784      0              56.819509      2099.6741    
   1022000   302.5533      -4.2516127      0              59.064374      2133.6841    
   1023000   301.5259      -3.7297889      0              59.371192      2209.6118    
   1024000   311.57373     -5.684008       0              59.519705      2135.2416    
   1025000   296.98429     -4.2451607      0              57.905388      2047.7979    
   1026000   299.15689     -4.3833357      0              58.221878      2129.579     
   1027000   302.93611     -4.8409219      0              58.555176      2090.0653    
   1028000   292.4924      -3.9159607      0              57.29456       2079.3439    
   1029000   295.7314      -4.8451104      0              57.043242      2095.2456    
   1030000   305.40903     -6.1963132      0              57.717298      1942.5571    
   1031000   305.05206     -5.6610174      0              58.177891      1932.6856    
   1032000   306.73203     -5.2258035      0              58.964676      2116.8925    
   1033000   302.67404     -5.8735209      0              57.467733      2016.0182    
   1034000   294.99782     -4.2074732      0              57.527363      2128.7679    
   1035000   312.55421     -3.2620898      0              62.14681       2105.4629    
   1036000   291.0084      -3.939935       0              56.960026      2078.2446    
   1037000   297.15806     -3.6770189      0              58.509896      2200.8031    
   1038000   307.01087     -5.3122507      0              58.936581      2106.5355    
   1039000   307.71725     -4.3172565      0              60.079402      2161.6234    
   1040000   300.12011     -4.9443887      0              57.862399      2099.8748    
   1041000   297.34096     -4.9105261      0              57.314664      2105.2262    
   1042000   299.95204     -4.3270892      0              58.444527      2154.0185    
   1043000   294.88895     -4.5880495      0              57.124001      2090.764     
   1044000   309.89391     -5.1701908      0              59.681981      2024.0562    
   1045000   295.91227     -4.2721915      0              57.654013      2142.6048    
   1046000   310.09079     -5.7446057      0              59.148768      2069.7722    
   1047000   299.23802     -4.7656656      0              57.856526      2127.9381    
   1048000   308.82111     -4.2264691      0              60.401195      2091.7503    
   1049000   285.80047     -4.9365696      0              54.873517      2162.9956    
   1050000   299.21979     -4.8701753      0              57.748201      2112.3506    
   1051000   289.646       -4.4098319      0              56.205017      2030.4536    
   1052000   293.10578     -3.2116786      0              58.127206      2066.1869    
   1053000   301.83635     -3.3177413      0              59.848208      2090.4457    
   1054000   300.0694      -2.5765327      0              60.219642      2210.4435    
   1055000   302.2272      -3.073852       0              60.173892      2140.674     
   1056000   300.54316     -4.754769       0              58.140551      2080.7197    
   1057000   300.45273     -4.5366405      0              58.339756      2110.7499    
   1058000   300.54127     -5.3136984      0              57.581226      2025.5337    
   1059000   296.65295     -5.4137373      0              56.66747       2011.2452    
   1060000   306.64667     -3.9426964      0              60.229919      2220.63      
   1061000   302.55508     -6.035816       0              57.280544      2020.8598    
   1062000   302.6839      -5.0150553      0              58.328262      2199.7436    
   1063000   307.06197     -4.3455533      0              59.913972      2078.7141    
   1064000   309.38996     -3.6960309      0              61.050679      2115.0635    
   1065000   302.22785     -5.3467543      0              57.901125      2053.6996    
   1066000   299.41379     -4.5753681      0              58.083606      2116.2002    
   1067000   301.62112     -4.1773657      0              58.943541      2147.3961    
   1068000   294.40391     -3.75165        0              57.858896      2172.82      
   1069000   303.95968     -5.5030081      0              58.107295      2133.5216    
   1070000   297.58285     -2.4663627      0              59.809446      2190.6861    
   1071000   304.96993     -5.2514662      0              58.570255      2024.7945    
   1072000   285.65267     -4.5262226      0              55.252933      2084.0387    
   1073000   292.30838     -4.4318023      0              56.740207      2079.387     
   1074000   302.38648     -2.6344852      0              60.646591      2186.023     
   1075000   305.45306     -4.7704253      0              59.152401      2062.4964    
   1076000   300.21302     -5.7397894      0              57.086443      2069.6494    
   1077000   303.81362     -5.0515771      0              58.52816       2135.844     
   1078000   301.65435     -6.2150421      0              56.912819      2035.1552    
   1079000   297.99517     -4.344313       0              58.017784      2160.9959    
   1080000   290.16034     -4.3533439      0              56.36914       2264.9967    
   1081000   309.39867     -4.6515979      0              60.096935      2119.2204    
   1082000   293.69138     -5.1371603      0              56.324273      2115.2423    
   1083000   295.75297     -3.6352951      0              58.257573      2026.7838    
   1084000   299.58712     -5.9183291      0              56.776919      2111.2604    
   1085000   297.0093      -5.5471847      0              56.608597      2135.2012    
   1086000   301.93039     -2.8960746      0              60.289556      2174.793     
   1087000   297.16046     -7.2283986      0              54.959018      2019.3277    
   1088000   313.88512     -4.5974416      0              61.08998       2165.7151    
   1089000   296.97926     -5.0003824      0              57.149112      2084.5513    
   1090000   289.03173     -5.2904414      0              55.195856      2026.3214    
   1091000   303.88385     -4.8172205      0              58.777215      2122.2277    
   1092000   299.04659     -6.7580354      0              55.824094      1958.9498    
   1093000   294.08068     -4.4684212      0              57.074483      2032.967     
   1094000   306.24953     -4.8555617      0              59.233943      2105.0764    
   1095000   299.21303     -4.5369749      0              58.079987      2038.819     
   1096000   289.17444     -2.914749       0              57.601416      2127.0172    
   1097000   297.07084     -6.0456958      0              56.122965      2023.2908    
   1098000   304.6786      -5.0612142      0              58.699539      2144.1387    
   1099000   296.68487     -4.2810048      0              57.806883      2077.0039    
   1100000   286.9414      -4.3467484      0              55.702102      2075.677     
   1101000   305.42364     -4.6257314      0              59.290939      2074.548     
   1102000   301.34027     -5.4360523      0              57.626082      2145.09      
   1103000   294.62947     -5.2764145      0              56.381336      2134.65      
   1104000   299.1355      -5.1550056      0              57.445731      2011.4834    
   1105000   297.17776     -5.9150482      0              56.275988      2021.4564    
   1106000   292.23247     -2.8072632      0              58.348861      2105.0624    
   1107000   306.85592     -3.2898338      0              60.926572      2189.4215    
   1108000   303.44247     -4.7103748      0              58.791692      2121.143     
   1109000   297.9915      -4.1509857      0              58.210343      2053.3584    
   1110000   303.51204     -5.1243688      0              58.392256      2015.9438    
   1111000   304.54504     -4.6488674      0              59.083935      2152.0485    
   1112000   300.09151     -5.2838917      0              57.51691       2131.8746    
   1113000   295.38229     -5.7792004      0              56.036095      1952.2559    
   1114000   298.97554     -3.778671       0              58.788591      2081.2894    
   1115000   291.04457     -3.9546831      0              56.952848      2174.2736    
   1116000   296.12156     -5.2489742      0              56.721029      2058.8       
   1117000   297.02608     -5.9737462      0              56.185547      2019.981     
   1118000   289.00522     -4.1092824      0              56.371469      2071.4145    
   1119000   311.30459     -6.0839895      0              59.063398      2050.1913    
   1120000   301.80835     -5.5644656      0              57.595623      2116.4121    
   1121000   316.443       -4.5135105      0              61.709203      2074.4933    
   1122000   298.41872     -2.8847406      0              59.565993      2145.8618    
   1123000   308.98255     -4.7413907      0              59.92006       2018.4157    
   1124000   296.78929     -5.1260069      0              56.983732      2135.2744    
   1125000   304.55301     -4.785525       0              58.948947      2143.0106    
   1126000   291.20084     -3.8908004      0              57.049432      2189.5322    
   1127000   297.81716     -5.7199768      0              56.604868      2078.6688    
   1128000   305.26618     -4.6810437      0              59.202673      2137.3926    
   1129000   291.88557     -4.0397341      0              57.043793      1991.0129    
   1130000   307.72016     -3.6599102      0              60.737357      2148.8563    
   1131000   288.47782     -3.1663984      0              57.203982      2070.9273    
   1132000   303.21603     -4.8158546      0              58.638824      2169.697     
   1133000   296.67863     -6.2512152      0              55.835367      2024.8713    
   1134000   289.04269     -5.0425728      0              55.446019      1995.3665    
   1135000   298.42184     -4.2488358      0              58.202552      1987.5011    
   1136000   302.69057     -5.4443543      0              57.900359      2072.6154    
   1137000   307.29319     -5.9009972      0              58.406917      2027.6787    
   1138000   292.54731     -5.7188222      0              55.503189      2044.1664    
   1139000   305.00933     -4.4401734      0              59.389793      2061.6172    
   1140000   291.99506     -6.0762059      0              55.030235      2078.3807    
   1141000   305.488       -4.5401067      0              59.390032      2250.0743    
   1142000   296.06907     -4.773857       0              57.185161      2108.5487    
   1143000   306.85281     -5.1812353      0              59.03452       2042.5618    
   1144000   296.88558     -4.8937174      0              57.236174      2071.3459    
   1145000   300.38398     -5.4372267      0              57.424783      2027.3034    
   1146000   293.18298     -4.8893359      0              56.465704      2127.4158    
   1147000   315.38738     -4.6065477      0              61.395254      2128.5221    
   1148000   303.21642     -2.2105282      0              61.244232      2230.901     
   1149000   305.33027     -4.7267617      0              59.170368      2157.507     
   1150000   300.58426     -5.5131435      0              57.390778      2007.4929    
   1151000   299.66152     -5.2227236      0              57.488095      2079.2202    
   1152000   305.08985     -3.6818542      0              60.164962      2137.7139    
   1153000   301.66054     -6.7462194      0              56.382939      1914.9402    
   1154000   298.66274     -5.3162684      0              57.185533      2040.1406    
   1155000   309.48105     -5.3582988      0              59.407473      2128.3822    
   1156000   296.92719     -4.5050298      0              57.633569      2070.101     
   1157000   300.53449     -3.7653598      0              59.128147      2123.4031    
   1158000   312.09812     -4.2886787      0              61.024774      2078.4938    
   1159000   290.61451     -5.2074123      0              55.610118      2076.3342    
   1160000   301.08381     -3.5181115      0              59.490353      2111.4421    
   1161000   300.91542     -2.4640452      0              60.509179      2108.9251    
   1162000   294.68137     -5.9353845      0              55.733227      2013.1723    
   1163000   308.34669     -4.6089734      0              59.919409      2090.0371    
   1164000   290.42964     -4.2467538      0              56.532089      2106.0916    
   1165000   299.32463     -4.3840915      0              58.256225      2010.9549    
   1166000   303.69785     -3.4635814      0              60.091929      2113.8787    
   1167000   288.30853     -5.2179307      0              55.117023      1997.1136    
   1168000   301.01052     -5.6506516      0              57.342475      2032.635     
   1169000   307.14704     -4.5330935      0              59.744236      2168.946     
   1170000   292.78615     -5.2299025      0              56.042091      2065.2388    
   1171000   297.36218     -5.1265505      0              57.103079      1984.1469    
   1172000   300.48776     -4.3927386      0              58.490988      2047.3575    
   1173000   304.45663     -3.7271791      0              59.987122      2187.8572    
   1174000   302.05312     -5.0588667      0              58.152446      2011.7927    
   1175000   295.57022     -4.7397127      0              57.114911      1976.9017    
   1176000   307.29992     -3.4635673      0              60.845755      2204.1922    
   1177000   283.63533     -4.6619155      0              54.695066      2212.1459    
   1178000   303.18272     -5.2069912      0              58.240716      2062.5475    
   1179000   307.10225     -4.8804854      0              59.38747       2116.6042    
   1180000   292.01187     -4.4335101      0              56.676448      2109.1591    
   1181000   301.83109     -6.7628613      0              56.401988      2017.3182    
   1182000   301.79308     -4.6346929      0              58.5222        2046.9186    
   1183000   293.60879     -3.9239508      0              57.520199      2132.2661    
   1184000   277.26702     -3.3415068      0              54.682765      2137.8019    
   1185000   293.19229     -5.1326284      0              56.224361      1990.7598    
   1186000   293.83119     -4.731649       0              56.759044      2104.8191    
   1187000   304.86526     -4.5709089      0              59.228908      2173.1821    
   1188000   299.83816     -4.8606926      0              57.887092      2045.7126    
   1189000   299.15882     -3.9874867      0              58.61813       2123.7048    
   1190000   298.24142     -4.4158796      0              57.99775       2018.8826    
   1191000   309.37846     -3.8518785      0              60.892425      2090.8334    
   1192000   299.80324     -4.0127002      0              58.727776      2036.6287    
   1193000   292.84559     -4.9007573      0              56.383676      1939.2257    
   1194000   301.89143     -4.9212801      0              58.256195      2135.3135    
   1195000   307.81818     -4.5175835      0              59.900197      2083.7659    
   1196000   303.67366     -5.0299247      0              58.520523      2032.3032    
   1197000   303.1671      -5.5164062      0              57.928032      2091.8162    
   1198000   303.71729     -4.3802004      0              59.179378      2192.6856    
   1199000   295.30018     -5.1210167      0              56.677095      2094.7325    
   1200000   320.27282     -6.0422756      0              60.981914      2132.0164    
   1201000   299.65475     -6.6828615      0              56.026541      2041.4115    
   1202000   315.34067     -5.2487327      0              60.743295      2126.4332    
   1203000   298.17718     -3.5331726      0              58.867015      2170.8521    
   1204000   307.94652     -3.7134923      0              60.731145      2235.708     
   1205000   297.61675     -3.6728584      0              58.610046      2265.815     
   1206000   301.58054     -4.2630577      0              58.849358      2048.4218    
   1207000   300.54725     -4.3541117      0              58.542065      2053.8555    
   1208000   299.65688     -6.5648699      0              56.144977      2034.4899    
   1209000   318.403       -5.4346157      0              61.198273      2071.0881    
   1210000   295.93387     -4.8133718      0              57.117353      2091.3529    
   1211000   308.45591     -4.1943281      0              60.356911      2159.5761    
   1212000   302.83158     -3.2991353      0              60.075089      2146.2982    
   1213000   293.54753     -3.9570539      0              57.474277      2032.5705    
   1214000   295.24719     -4.2104504      0              57.576571      2119.003     
   1215000   301.22212     -5.5420136      0              57.495394      2140.3082    
   1216000   306.88098     -3.87576        0              60.345891      2072.2264    
   1217000   300.22704     -3.0373913      0              59.791774      2128.4456    
   1218000   290.27402     -3.7111057      0              57.035171      2151.8254    
   1219000   311.52289     -3.6656757      0              61.527398      2141.0609    
   1220000   305.57616     -4.4620462      0              59.486542      2068.9657    
   1221000   298.45695     -5.239639       0              57.219097      2061.523     
   1222000   291.54879     -4.4092059      0              56.603844      2137.9985    
   1223000   317.03468     -5.009581       0              61.336956      2138.4569    
   1224000   301.53098     -5.9075626      0              57.194481      2085.2468    
   1225000   288.02858     -3.6847168      0              56.59165       2167.2589    
   1226000   305.35287     -4.5157893      0              59.38607       2167.4861    
   1227000   299.91969     -4.4268159      0              58.338031      2088.1164    
   1228000   294.62862     -5.0936105      0              56.563962      2047.936     
   1229000   291.46834     -2.8665797      0              58.129634      2321.1636    
   1230000   297.18906     -4.7371394      0              57.456262      2019.1662    
   1231000   293.36686     -5.3731414      0              56.02038       1990.9916    
   1232000   304.61142     -4.9064726      0              58.840222      2170.7329    
   1233000   303.61733     -3.5418544      0              59.996806      2123.1647    
   1234000   307.68214     -3.7002111      0              60.689099      2123.3335    
   1235000   297.04779     -5.0105041      0              57.153333      2054.7123    
   1236000   297.09372     -4.634299       0              57.539151      2044.8335    
   1237000   300.22186     -4.0123595      0              58.815722      2111.1821    
   1238000   289.42734     -3.9609118      0              56.608178      2111.2615    
   1239000   300.03066     -2.6870621      0              60.101007      2177.2749    
   1240000   306.55719     -4.4095048      0              59.744385      2075.6632    
   1241000   298.78809     -4.3026407      0              58.225393      2147.4186    
   1242000   307.09655     -4.7913608      0              59.475402      2124.2007    
   1243000   305.94833     -4.5914036      0              59.435068      2075.7497    
   1244000   292.95502     -2.9688498      0              58.338485      2199.6659    
   1245000   291.16947     -3.5377764      0              57.395891      2218.4986    
   1246000   304.54737     -5.1319894      0              58.601301      2060.0065    
   1247000   296.84349     -6.2174665      0              55.903617      2038.9729    
   1248000   301.29119     -4.6065231      0              58.44534       2157.0982    
   1249000   297.16065     -4.3810118      0              57.806445      2075.644     
   1250000   297.83648     -3.4897518      0              58.839137      2036.935     
   1251000   304.57445     -4.4942874      0              59.244669      2108.3269    
   1252000   302.42916     -4.5447777      0              58.745231      2083.5867    
   1253000   307.68189     -6.448388       0              57.940871      1975.861     
   1254000   293.6573      -5.3452961      0              56.109005      2004.5517    
   1255000   294.74802     -3.4986649      0              58.183894      2071.4272    
   1256000   300.80264     -3.5565638      0              59.393059      2164.5773    
   1257000   299.24934     -4.88783        0              57.73673       1953.3411    
   1258000   309.23379     -3.9610425      0              60.752985      2064.4641    
   1259000   290.51777     -3.1486393      0              57.648647      2198.3112    
   1260000   300.5935      -3.5065674      0              59.399288      2166.7794    
   1261000   303.34734     -4.0074657      0              59.474691      2066.7707    
   1262000   308.14763     -4.5722734      0              59.914451      2088.5315    
   1263000   292.16559     -4.6386696      0              56.503459      2108.8798    
   1264000   303.85075     -5.6184158      0              57.969092      2044.0174    
   1265000   304.70224     -4.3296057      0              59.436094      2204.4834    
   1266000   301.91354     -6.3352746      0              56.846828      2054.0809    
   1267000   300.8485      -5.1823165      0              57.776903      2126.201     
   1268000   288.88969     -5.6504785      0              54.806096      2028.139     
   1269000   303.22745     -5.22794        0              58.229128      2142.9712    
   1270000   293.45439     -3.8489929      0              57.562846      2087.5796    
   1271000   302.57851     -5.9637498      0              57.357513      2038.4341    
   1272000   295.05405     -5.5808221      0              56.165782      2052.7894    
   1273000   296.58068     -3.7348098      0              58.331274      2089.8437    
   1274000   298.99461     -4.2223308      0              58.348922      2088.8234    
   1275000   300.21712     -4.0809406      0              58.746149      2034.6897    
   1276000   300.98103     -3.6236866      0              59.363268      2154.3189    
   1277000   282.61453     -3.5146923      0              55.628666      2091.9419    
   1278000   296.47557     -4.8437998      0              57.200287      2172.548     
   1279000   301.6662      -3.8352942      0              59.295047      2065.1761    
   1280000   288.75103     -3.7286154      0              56.69894       2106.6849    
   1281000   285.35967     -6.095214       0              53.622625      1953.4452    
   1282000   297.01508     -4.7390836      0              57.417909      2121.0052    
   1283000   303.67567     -3.2684668      0              60.282402      2129.7304    
   1284000   302.37562     -3.4909009      0              59.787903      2148.6959    
   1285000   298.30846     -4.535293       0              57.892368      2007.8043    
   1286000   291.57695     -6.8790606      0              54.139881      1956.4506    
   1287000   305.39397     -3.6880224      0              60.222437      2083.6858    
   1288000   294.32682     -6.6655965      0              54.928818      1916.1395    
   1289000   292.84922     -6.8398141      0              54.445379      2067.8746    
   1290000   310.21015     -5.1434859      0              59.774868      2086.5204    
   1291000   302.2684      -4.8354534      0              58.420912      2033.1212    
   1292000   296.20237     -4.6240852      0              57.362829      2074.4356    
   1293000   298.01029     -3.1479605      0              59.2173        2157.0903    
   1294000   304.55248     -4.3074627      0              59.426896      2115.8222    
   1295000   304.80066     -2.0744682      0              61.71183       2145.4488    
   1296000   299.95441     -5.18853        0              57.583581      2200.2621    
   1297000   279.81754     -5.9121478      0              52.645876      1997.5682    
   1298000   300.60952     -3.6056589      0              59.303549      2175.8852    
   1299000   296.86824     -4.7602382      0              57.366024      2135.8627    
   1300000   291.70245     -5.2485484      0              55.796657      2080.8789    
   1301000   294.21734     -5.0522847      0              56.519218      2069.5414    
   1302000   288.61243     -4.6990771      0              55.699474      2223.0895    
   1303000   316.34997     -4.6527952      0              61.55045       2141.8091    
   1304000   291.57672     -3.9573859      0              57.061507      2127.2744    
   1305000   298.17221     -5.9792837      0              56.419863      1980.2634    
   1306000   301.14944     -4.6795953      0              58.342602      2062.2708    
   1307000   295.58239     -3.6463155      0              58.210854      2120.0857    
   1308000   302.85884     -5.3724048      0              58.007524      2064.5365    
   1309000   301.33074     -6.5684583      0              56.491681      2002.2938    
   1310000   297.09264     -4.3253285      0              57.847894      2066.2629    
   1311000   296.63362     -4.3926204      0              57.684543      2186.9151    
   1312000   306.53994     -6.2850877      0              57.865192      2012.4199    
   1313000   288.13727     -5.1128952      0              55.186218      2049.0945    
   1314000   306.86712     -3.9107066      0              60.308043      2117.9269    
   1315000   302.69242     -5.8273275      0              57.517773      2017.7621    
   1316000   298.8394      -4.5661423      0              57.972629      2146.8044    
   1317000   309.03306     -5.5396941      0              59.132326      2017.0146    
   1318000   288.75265     -6.145534       0              54.282362      2025.5549    
   1319000   297.60391     -3.5990735      0              58.681143      2014.5591    
   1320000   299.09208     -5.5618558      0              57.029794      2010.7575    
   1321000   302.28786     -6.1890494      0              57.071388      2019.7613    
   1322000   292.81436     -4.8218263      0              56.456071      2120.5497    
   1323000   289.24945     -4.4271887      0              56.104673      2071.4694    
   1324000   309.91451     -5.2736095      0              59.582874      2049.1316    
   1325000   302.94793     -3.8956836      0              59.502889      2125.9487    
   1326000   305.71612     -4.9009592      0              59.076918      2081.6908    
   1327000   298.56423     -4.5226396      0              57.958547      2189.7454    
   1328000   301.8255      -4.5859659      0              58.577713      2117.3379    
   1329000   302.97176     -7.078702       0              56.324857      1924.664     
   1330000   297.22823     -4.4796372      0              57.72196       2107.8025    
   1331000   292.27814     -4.0162264      0              57.149456      2136.9861    
   1332000   302.73483     -5.7106729      0              57.643304      2077.5164    
   1333000   291.45883     -3.3715573      0              57.622667      2073.3345    
   1334000   288.31292     -4.252337       0              56.083534      2117.3803    
   1335000   290.39297     -5.2340767      0              55.537092      2104.6074    
   1336000   293.32322     -3.8443985      0              57.53999       2118.6827    
   1337000   302.20317     -4.6613701      0              58.581345      1986.6257    
   1338000   304.25522     -3.6595095      0              60.012643      2012.0776    
   1339000   300.81724     -3.3584517      0              59.594227      2166.7842    
   1340000   291.87861     -4.0393939      0              57.042677      1976.9566    
   1341000   294.61453     -4.4549477      0              57.199676      2207.3064    
   1342000   309.58318     -5.781463       0              59.005683      2079.9521    
   1343000   303.73551     -4.5412979      0              59.022093      2149.1981    
   1344000   304.55798     -3.8905145      0              59.844996      2130.0638    
   1345000   305.53431     -4.6545954      0              59.285234      2036.4572    
   1346000   311.35695     -4.995794       0              60.162553      2024.4444    
   1347000   303.72261     -6.2648982      0              57.295793      2111.1281    
   1348000   299.87486     -5.5683426      0              57.187122      2044.1867    
   1349000   299.95655     -4.0200948      0              58.752464      2129.695     
   1350000   287.99618     -3.7319289      0              56.537659      2195.3727    
   1351000   301.87896     -4.9123483      0              58.262517      2001.6214    
   1352000   303.24195     -4.6569578      0              58.803144      2109.8364    
   1353000   297.42031     -2.2855456      0              59.95625       2144.5909    
   1354000   315.33326     -4.2847216      0              61.705755      2174.6297    
   1355000   296.85633     -5.6811586      0              56.442611      1955.44      
   1356000   297.85997     -4.2324454      0              58.101359      2109.6669    
   1357000   304.99127     -3.421236       0              60.404949      2101.5282    
   1358000   306.65421     -3.1484644      0              61.02573       2220.9654    
   1359000   303.00256     -4.4067201      0              59.003284      2227.6943    
   1360000   299.53198     -4.2141438      0              58.469564      2121.2623    
   1361000   298.51949     -5.0143819      0              57.457441      1998.299     
   1362000   301.12597     -6.2323306      0              56.784956      2066.9268    
   1363000   297.00241     -3.7871456      0              58.367194      2140.0155    
   1364000   303.69878     -3.1037644      0              60.451939      2092.4789    
   1365000   309.3496      -5.4067074      0              59.331555      2119.9789    
   1366000   301.89818     -4.95749        0              58.221399      2007.8392    
   1367000   298.20908     -4.1430023      0              58.26386       2115.7394    
   1368000   309.6829      -3.9786589      0              60.829356      2138.8119    
   1369000   311.51069     -5.6347522      0              59.555768      2004.1787    
   1370000   301.37128     -5.5099297      0              57.558694      1978.5544    
   1371000   296.01338     -4.1385398      0              57.808824      2136.7897    
   1372000   284.95697     -5.3538434      0              54.279722      2137.6754    
   1373000   311.10442     -6.5133718      0              58.592126      2049.4598    
   1374000   307.72842     -3.4760818      0              60.922914      2215.2457    
   1375000   298.70668     -4.565824       0              57.945172      2065.4932    
   1376000   303.45788     -6.7823932      0              56.722897      2090.1596    
   1377000   296.3744      -5.2047717      0              56.818143      2007.7376    
   1378000   303.40759     -5.0823309      0              58.412435      2145.9091    
   1379000   304.47193     -3.1989893      0              60.518514      2076.4989    
   1380000   292.27425     -5.6697864      0              55.495082      2032.0715    
   1381000   298.87129     -5.3380887      0              57.207357      2063.6441    
   1382000   296.07177     -3.7740632      0              58.185519      2165.5557    
   1383000   290.09905     -4.2588885      0              56.450771      2040.4399    
   1384000   304.0859      -3.312493       0              60.324224      2050.8746    
   1385000   301.86462     -4.3154052      0              58.856461      2173.4618    
   1386000   295.71572     -3.5748142      0              58.310258      1965.0479    
   1387000   293.8879      -4.2959983      0              57.206561      2094.6866    
   1388000   295.66588     -5.9188354      0              55.955806      2091.1091    
   1389000   305.40625     -4.9726111      0              58.940419      2231.1339    
   1390000   302.58572     -4.8316408      0              58.491131      2069.7748    
   1391000   298.85623     -3.8977648      0              58.644528      2112.3212    
   1392000   295.46281     -3.5871618      0              58.244983      2203.6937    
   1393000   294.0798      -4.5112638      0              57.031456      1975.1594    
   1394000   288.19597     -4.0903539      0              56.221043      2136.1687    
   1395000   302.46249     -4.7768645      0              58.520118      2152.606     
   1396000   303.35756     -3.1668015      0              60.317494      2215.5443    
   1397000   297.39644     -2.4732042      0              59.763595      2057.1546    
   1398000   305.9087      -4.0563019      0              59.961877      2184.0434    
   1399000   312.86078     -3.5694274      0              61.903628      2083.0513    
   1400000   294.98634     -5.5156092      0              56.216824      2023.3732    
   1401000   292.32447     -2.6232964      0              58.552081      2161.7848    
   1402000   298.06697     -4.55101        0              57.826113      2039.2787    
   1403000   290.30091     -4.1822649      0              56.569638      2027.1253    
   1404000   293.04091     -4.2952427      0              57.030066      2071.1389    
   1405000   310.17597     -4.0731266      0              60.838072      2141.6857    
   1406000   304.38528     -4.2851986      0              59.414171      2199.7593    
   1407000   295.96006     -4.6906339      0              57.245572      2046.965     
   1408000   296.78959     -3.8378639      0              58.271938      2136.0414    
   1409000   299.5894      -6.4864303      0              56.209294      1992.3386    
   1410000   296.68788     -4.3632515      0              57.725266      2091.1935    
   1411000   292.00863     -3.7746581      0              57.334624      2085.131     
   1412000   306.67262     -3.3284603      0              60.849585      2066.4282    
   1413000   303.01734     -6.9070123      0              56.506086      2006.5224    
   1414000   299.71776     -4.9529767      0              57.76961       2049.8927    
   1415000   293.35148     -3.9525296      0              57.437772      2182.7252    
   1416000   303.87018     -3.1595105      0              60.432064      2066.7779    
   1417000   304.72108     -4.0241688      0              59.745475      2152.2186    
   1418000   303.82111     -5.3247444      0              58.25656       1987.6583    
   1419000   309.16839     -4.12843        0              60.571911      2133.2101    
   1420000   290.07249     -3.3410755      0              57.363026      2061.276     
   1421000   295.99889     -2.7434052      0              59.200927      2167.4345    
   1422000   308.42883     -4.1715633      0              60.374009      2110.782     
   1423000   298.24903     -4.2703874      0              58.144836      2168.0516    
   1424000   306.37529     -4.671939       0              59.443884      2073.9564    
   1425000   294.64112     -5.7453763      0              55.914811      1984.6069    
   1426000   284.06127     -4.4538928      0              54.992227      2126.2033    
   1427000   305.58768     -5.611435       0              58.339563      2053.0424    
   1428000   311.13347     -5.2417756      0              59.869802      2117.9576    
   1429000   300.77672     -5.8428898      0              57.10131       2036.9512    
   1430000   298.32724     -5.8613393      0              56.570252      1986.7127    
   1431000   299.40928     -3.0364962      0              59.621534      2171.1815    
   1432000   288.47729     -4.8284156      0              55.541853      2098.4958    
   1433000   302.3983      -2.6988633      0              60.584687      2163.8931    
   1434000   294.59208     -4.464456       0              57.185469      2062.188     
   1435000   300.95179     -3.7822418      0              59.198594      2175.5332    
   1436000   309.83702     -6.4182868      0              58.421981      2046.5772    
   1437000   301.35059     -4.3962177      0              58.668075      2109.5207    
   1438000   300.49474     -4.6073898      0              58.277799      2060.2824    
   1439000   299.73008     -5.9825877      0              56.742578      2081.4426    
   1440000   303.76048     -3.5411711      0              60.027444      2151.7196    
   1441000   302.56732     -4.4306054      0              58.888316      2047.6148    
   1442000   298.76242     -4.8526634      0              57.669997      2226.2528    
   1443000   310.41777     -4.9632016      0              59.9986        2058.9385    
   1444000   306.6269      -3.5583835      0              60.610095      2074.0251    
   1445000   299.33027     -2.8502094      0              59.791288      2081.9527    
   1446000   294.17485     -5.5021341      0              56.060477      2081.8712    
   1447000   304.23103     -2.7937577      0              60.873331      2184.0297    
   1448000   303.14648     -2.9731454      0              60.466978      2116.0565    
   1449000   300.62645     -4.1400132      0              58.772738      2132.1482    
   1450000   295.91791     -4.6273625      0              57.300021      2026.2723    
   1451000   279.64374     -4.2212554      0              54.300398      2087.5236    
   1452000   303.41026     -4.1545731      0              59.340752      2157.5512    
   1453000   305.00975     -3.5821902      0              60.247864      2236.6754    
   1454000   300.99442     -3.6372158      0              59.352541      2119.8344    
   1455000   311.63175     -4.8216665      0              60.394187      2188.861     
   1456000   291.02936     -4.1608616      0              56.743486      2077.7769    
   1457000   301.40456     -5.9844524      0              57.091135      2050.9188    
   1458000   296.64117     -5.4907968      0              56.587947      2001.1153    
   1459000   295.11509     -5.3833582      0              56.376018      2076.9583    
   1460000   302.65764     -4.3410034      0              58.996819      1985.2975    
   1461000   296.90943     -5.2470363      0              56.887846      2017.6968    
   1462000   306.75694     -4.3332947      0              59.862398      2129.7013    
   1463000   300.98166     -3.3287977      0              59.658288      2111.5174    
   1464000   300.46435     -4.9751068      0              57.903721      2035.5581    
   1465000   298.09846     -5.185705       0              57.198007      2060.5769    
   1466000   308.49131     -4.0881627      0              60.470485      2164.739     
   1467000   295.71067     -5.1241239      0              56.759891      2144.3633    
   1468000   297.52372     -4.1505741      0              58.112862      2237.7854    
   1469000   299.46124     -4.3919194      0              58.276987      2046.8425    
   1470000   302.06683     -3.6874442      0              59.526738      2152.3647    
   1471000   296.13956     -5.3123118      0              56.661458      2070.4356    
   1472000   316.60435     -5.3986903      0              60.857791      1983.7571    
   1473000   297.48706     -5.7574971      0              56.498268      2095.519     
   1474000   310.37321     -5.2276892      0              59.724787      2092.4393    
   1475000   298.51132     -4.6785262      0              57.791586      2172.5083    
   1476000   309.0715      -3.9290266      0              60.751039      2209.5495    
   1477000   295.57705     -6.5785813      0              55.277471      2004.5576    
   1478000   297.27646     -4.0673716      0              58.14432       2170.8926    
   1479000   305.25131     -5.1303164      0              58.750289      2126.0392    
   1480000   292.31085     -4.5551966      0              56.61733       2001.7405    
   1481000   296.14685     -5.2467489      0              56.728547      2119.2942    
   1482000   299.48195     -2.8860925      0              59.787147      2131.6331    
   1483000   299.99786     -4.2594901      0              58.521715      2119.1514    
   1484000   301.33615     -3.5248509      0              59.536421      2087.8221    
   1485000   308.27055     -7.4046764      0              57.107772      2057.036     
   1486000   298.23851     -4.8054449      0              57.607578      1988.5211    
   1487000   302.61983     -4.6171465      0              58.712763      2024.7567    
   1488000   300.70865     -4.3080341      0              58.621919      2101.1189    
   1489000   297.15856     -4.9760914      0              57.210927      2090.4488    
   1490000   297.99122     -3.7411095      0              58.620162      2137.0434    
   1491000   299.65894     -6.0648698      0              56.645408      2051.3481    
   1492000   286.57605     -4.2144504      0              55.757943      2023.5724    
   1493000   298.11532     -5.3533701      0              57.033871      2058.6769    
   1494000   291.94569     -3.1748705      0              57.921239      2150.0878    
   1495000   300.67957     -3.880508       0              59.043359      2157.9028    
   1496000   305.88814     -6.0734122      0              57.940464      2022.956     
   1497000   303.41086     -4.1545788      0              59.340872      2013.5125    
   1498000   309.342       -4.2280722      0              60.508601      2113.5447    
   1499000   292.73123     -2.9998533      0              58.260647      2183.7797    
   1500000   301.35688     -3.956009       0              59.109601      2064.4595    
   1501000   290.74421     -3.9293698      0              56.915303      2085.9887    
   1502000   292.56006     -5.3386301      0              55.886049      2026.3599    
   1503000   295.96734     -3.9795835      0              57.958144      2015.1508    
   1504000   297.0232      -5.5006835      0              56.658008      2011.2625    
   1505000   313.10976     -4.7628205      0              60.76234       2101.1264    
   1506000   294.00831     -3.2799883      0              58.247769      2166.1217    
   1507000   301.99168     -5.9178407      0              57.280614      1998.4387    
   1508000   304.59961     -5.6669081      0              58.077314      1999.1543    
   1509000   295.18442     -4.1296349      0              57.644251      2094.8624    
   1510000   307.39638     -3.7264084      0              60.6031        2047.0081    
   1511000   297.80366     -4.2612535      0              58.060765      2127.0369    
   1512000   284.84263     -3.1386658      0              56.470972      2081.027     
   1513000   307.70046     -5.7747656      0              58.618379      2047.0211    
   1514000   307.29292     -3.7483359      0              60.559522      2172.9679    
   1515000   294.75221     -4.1559772      0              57.52746       2198.9043    
   1516000   306.56501     -4.6410887      0              59.514437      2007.3725    
   1517000   304.4755      -5.0027135      0              58.715537      2168.7399    
   1518000   315.64714     -3.9831637      0              62.072999      2058.5713    
   1519000   313.71555     -4.6945022      0              60.957433      2059.6355    
   1520000   301.03464     -4.7361168      0              58.262057      2039.0479    
   1521000   294.15297     -3.915584       0              57.642449      2071.112     
   1522000   293.78425     -5.0220761      0              56.458793      2051.162     
   1523000   298.11462     -4.0417573      0              58.345337      2106.5       
   1524000   292.89582     -5.2021739      0              56.092771      2060.6413    
   1525000   307.02287     -3.6873832      0              60.563961      2112.6864    
   1526000   301.91993     -3.832306       0              59.351134      2107.6923    
   1527000   299.20461     -5.8949024      0              56.720297      1989.612     
   1528000   301.85012     -3.9145776      0              59.254254      2071.248     
   1529000   297.303       -3.9203042      0              58.296941      2168.4795    
   1530000   287.09332     -4.4051724      0              55.675471      2136.3388    
   1531000   295.8718      -5.6562022      0              56.261532      2094.3177    
   1532000   294.53647     -3.6383238      0              57.999964      2100.2664    
   1533000   306.40191     -5.5098515      0              58.611543      2092.0856    
   1534000   303.97465     -5.0571131      0              58.556323      2100.5805    
   1535000   309.03678     -6.633006       0              58.039792      2076.9565    
   1536000   295.90082     -4.8151488      0              57.108658      2123.1311    
   1537000   299.12985     -4.7466539      0              57.8529        2122.0602    
   1538000   306.06865     -4.4236302      0              59.628021      2145.6364    
   1539000   310.50658     -3.3456087      0              61.634779      2167.0417    
   1540000   295.81475     -5.5358769      0              56.36992       2114.9275    
   1541000   298.66688     -6.0710695      0              56.431598      1965.2872    
   1542000   294.56778     -5.4739378      0              56.170901      2111.0306    
   1543000   290.24387     -5.9881945      0              54.751771      1991.9823    
   1544000   292.83046     -3.7234973      0              57.557769      2069.3766    
   1545000   302.09525     -5.1250715      0              58.095059      2036.7727    
   1546000   295.67487     -4.6234844      0              57.253038      2122.1958    
   1547000   311.34422     -5.7896295      0              59.366053      2051.7793    
   1548000   291.93327     -4.716899       0              56.37661       2141.431     
   1549000   302.31171     -4.4686888      0              58.796739      2218.4908    
   1550000   293.39111     -4.4199812      0              56.978614      2025.2005    
   1551000   299.71735     -4.5054943      0              58.217006      2071.414     
   1552000   295.28833     -6.5407803      0              55.254851      2119.0142    
   1553000   294.07467     -4.3106864      0              57.23096       2174.9015    
   1554000   304.63035     -4.1138772      0              59.63678       2187.9884    
   1555000   300.35619     -2.5271177      0              60.329075      2175.2666    
   1556000   287.49382     -4.6825148      0              55.481943      2098.582     
   1557000   301.12614     -4.6710132      0              58.34631       2161.0079    
   1558000   299.28441     -4.5863059      0              58.045594      2088.6579    
   1559000   309.1926      -5.4620203      0              59.243387      2118.9692    
   1560000   300.53377     -5.0254742      0              57.867882      2201.2469    
   1561000   303.9833      -4.4629762      0              59.15227       2237.6922    
   1562000   311.96242     -3.5268592      0              61.758195      2123.6957    
   1563000   311.67368     -4.593509       0              60.63112       2078.5684    
   1564000   291.66896     -4.0233478      0              57.014849      2048.144     
   1565000   302.48236     -3.4620739      0              59.839066      2130.5435    
   1566000   294.89789     -5.2918911      0              56.422032      2158.3517    
   1567000   294.28115     -3.949943       0              57.634914      2129.992     
   1568000   301.71414     -4.6241889      0              58.516186      1988.0577    
   1569000   293.12727     -3.5325729      0              57.810808      2152.2841    
   1570000   299.68823     -4.6164564      0              58.09995       1981.1499    
   1571000   299.3891      -4.432244       0              58.221564      2081.3288    
   1572000   297.77124     -5.9682314      0              56.347003      1973.9701    
   1573000   304.01622     -4.1075114      0              59.514624      2134.8104    
   1574000   299.01311     -4.4615162      0              58.113608      2038.1109    
   1575000   308.34329     -3.3640958      0              61.163576      2132.2211    
   1576000   297.99306     -4.5006028      0              57.861052      1993.17      
   1577000   301.20461     -5.2664869      0              57.767258      1989.9837    
   1578000   300.66747     -4.6288042      0              58.292532      1998.7311    
   1579000   294.24132     -4.0666343      0              57.509887      2056.1949    
   1580000   288.34019     -5.4607703      0              54.880809      2167.9653    
   1581000   304.87182     -3.3542649      0              60.446924      2071.1342    
   1582000   295.59976     -2.9602604      0              58.900545      2170.7289    
   1583000   301.03425     -3.8268957      0              59.171197      2171.0161    
   1584000   308.04693     -3.2583374      0              61.207313      2166.3505    
   1585000   293.99424     -3.1162044      0              58.40861       2139.7007    
   1586000   295.73653     -3.6337253      0              58.255701      2171.9045    
   1587000   302.18165     -3.5723455      0              59.665865      2153.3886    
   1588000   310.78396     -5.424766       0              59.61367       2052.2451    
   1589000   296.46452     -2.8496816      0              59.192093      2152.068     
   1590000   305.74171     -4.0785114      0              59.904721      2100.6551    
   1591000   291.4021      -4.4124783      0              56.569874      2070.8284    
   1592000   297.59158     -4.2557991      0              58.021839      2124.7811    
   1593000   300.7653      -3.9830779      0              58.95873       2103.3974    
   1594000   304.67492     -3.8931697      0              59.866814      2163.9656    
   1595000   310.02317     -4.1776926      0              60.701531      2028.9498    
   1596000   300.62345     -4.6070642      0              58.30506       2094.8676    
   1597000   302.16672     -4.5037656      0              58.731322      2019.8174    
   1598000   293.74946     -6.3169448      0              55.156643      2001.2818    
   1599000   293.68482     -5.2027289      0              56.257332      2115.4937    
   1600000   297.08908     -5.1083681      0              57.064111      2147.1441    
   1601000   305.07985     -5.8363054      0              58.008418      2154.0446    
   1602000   295.75365     -4.7779597      0              57.11505       2148.5566    
   1603000   297.34427     -4.9011003      0              57.324781      2016.4069    
   1604000   300.03518     -4.2948582      0              58.494156      2103.7556    
   1605000   300.06968     -5.0068868      0              57.789347      2099.7179    
   1606000   295.90967     -4.5810094      0              57.344651      2132.4544    
   1607000   293.70904     -3.7799657      0              57.685165      2209.3909    
   1608000   307.33528     -2.4527735      0              61.86395       2188.0281    
   1609000   298.36525     -6.2592429      0              56.180301      2029.4112    
   1610000   306.19965     -6.0216378      0              58.05743       2123.9514    
   1611000   293.66345     -4.8526564      0              56.602933      1961.5028    
   1612000   300.08562     -4.1370932      0              58.662477      2086.7527    
   1613000   301.9894      -2.686694       0              60.511285      2308.7181    
   1614000   307.24615     -5.3921358      0              58.905934      2007.1912    
   1615000   293.67777     -4.2715206      0              57.187065      2130.3345    
   1616000   293.10166     -4.8151125      0              56.522908      2088.8725    
   1617000   302.89806     -4.0409588      0              59.347178      1992.0546    
   1618000   294.0309      -5.1684893      0              56.363997      1998.5794    
   1619000   294.57242     -5.0239111      0              56.6219        2052.7275    
   1620000   300.59231     -4.1785801      0              58.727027      2036.2481    
   1621000   302.02949     -3.2383216      0              59.968048      2236.7841    
   1622000   288.39025     -3.7838227      0              56.568232      1920.492     
   1623000   293.03958     -4.2643299      0              57.060701      2019.5262    
   1624000   296.08315     -4.4631404      0              57.498825      1928.1555    
   1625000   305.80694     -5.8985486      0              58.098335      2046.4783    
   1626000   291.26766     -4.04091        0              56.913306      2148.1142    
   1627000   304.21107     -4.2783735      0              59.384538      2067.1419    
   1628000   300.2895      -4.7300378      0              58.1122        2117.6759    
   1629000   296.97771     -3.4989317      0              58.650239      2109.7127    
   1630000   301.26978     -4.5889298      0              58.458452      1986.1619    
   1631000   305.92265     -3.9538044      0              60.067295      2109.655     
   1632000   289.38434     -3.9490646      0              56.611026      2035.6411    
   1633000   303.27893     -5.4061337      0              58.061708      2087.2271    
   1634000   291.48129     -5.8058464      0              55.193078      1941.4872    
   1635000   304.09439     -5.0971055      0              58.541388      2110.4466    
   1636000   294.87487     -4.3006549      0              57.40845       2120.0316    
   1637000   305.99166     -6.9215519      0              57.113988      1982.3393    
   1638000   292.74931     -3.4295899      0              57.834696      2169.4821    
   1639000   296.38054     -4.6841144      0              57.340086      2093.3809    
   1640000   294.74689     -5.518263       0              56.164059      2090.6284    
   1641000   299.39761     -5.0164115      0              57.639178      2024.8787    
   1642000   306.41607     -4.3926608      0              59.731696      2112.0085    
   1643000   302.65157     -3.4764299      0              59.860123      2275.3985    
   1644000   293.88207     -4.6655878      0              56.835752      2041.6591    
   1645000   306.31711     -4.5420925      0              59.561556      2103.6129    
   1646000   289.86478     -4.1597487      0              56.500885      2094.9768    
   1647000   304.49948     -5.5941486      0              58.129119      2063.2895    
   1648000   298.31664     -4.0698268      0              58.359546      2127.2723    
   1649000   305.13365     -4.5358863      0              59.320096      2100.8198    
   1650000   296.07281     -6.6458027      0              55.313999      2050.7955    
   1651000   305.37084     -5.7297819      0              58.175837      2040.6489    
   1652000   301.97554     -5.7342741      0              57.460804      2035.266     
   1653000   298.20034     -4.7290321      0              57.676001      2107.8269    
   1654000   305.19381     -4.0253183      0              59.843255      2093.6292    
   1655000   289.30254     -3.1245568      0              57.418415      2066.8924    
   1656000   302.61135     -1.9360051      0              61.392131      2182.345     
   1657000   302.89485     -4.0150937      0              59.37237       2119.4653    
   1658000   293.98129     -4.8322137      0              56.689889      2021.1127    
   1659000   295.96747     -2.8740372      0              59.06372       2273.7469    
   1660000   295.52316     -4.3706899      0              57.474085      2168.3343    
   1661000   309.90777     -5.8010956      0              59.053976      2108.9804    
   1662000   294.38911     -4.8824205      0              56.725029      2049.7051    
   1663000   301.66511     -4.2776345      0              58.85248       2181.2502    
   1664000   291.10615     -4.842015       0              56.078403      1978.5387    
   1665000   294.881       -2.5582548      0              59.152133      2156.628     
   1666000   302.0997      -3.6145319      0              59.60653       2064.5036    
   1667000   296.43458     -5.443209       0              56.592301      2141.9489    
   1668000   308.52773     -5.0517133      0              59.514555      2048.0119    
   1669000   300.51693     -5.0218646      0              57.867968      1987.673     
   1670000   305.12183     -4.101819       0              59.75169       2174.8083    
   1671000   306.26305     -5.0672536      0              59.025082      2082.2992    
   1672000   303.17796     -3.9925212      0              59.454189      2099.0806    
   1673000   300.21022     -4.4047455      0              58.420901      2132.3758    
   1674000   297.73007     -4.8804963      0              57.426123      2033.2206    
   1675000   288.26647     -4.2557198      0              56.070431      2182.5942    
   1676000   302.40738     -3.5702696      0              59.71518       2149.9257    
   1677000   300.77411     -4.5808177      0              58.362835      2038.6955    
   1678000   302.30782     -3.7489153      0              59.5157        2176.5259    
   1679000   294.79429     -4.4503571      0              57.241886      2116.6824    
   1680000   315.86117     -5.1386432      0              60.96231       2114.7761    
   1681000   290.02454     -4.6081246      0              56.085942      2018.0996    
   1682000   303.128       -3.2950476      0              60.141208      2236.269     
   1683000   294.95281     -5.1009011      0              56.624515      1972.7521    
   1684000   291.3545      -4.3192138      0              56.653177      2164.2976    
   1685000   303.06965     -4.1952851      0              59.228759      2070.7323    
   1686000   289.93654     -4.6480412      0              56.02761       2102.8994    
   1687000   289.05095     -3.6995607      0              56.790761      2104.3594    
   1688000   305.65201     -5.8863796      0              58.07808       2055.2216    
   1689000   285.57987     -4.4553323      0              55.308588      2122.4368    
   1690000   305.42589     -4.1552783      0              59.761863      2087.1671    
   1691000   307.60747     -1.9321253      0              62.441559      2246.635     
   1692000   301.87964     -4.8365645      0              58.338444      2134.5927    
   1693000   293.12381     -3.9279218      0              57.414735      2207.3281    
   1694000   310.85399     -4.0269058      0              61.026184      2093.7951    
   1695000   291.89357     -3.9874206      0              57.097781      2109.793     
   1696000   302.02925     -6.5561092      0              56.650208      1994.0997    
   1697000   297.75769     -4.8614593      0              57.450939      2040.5832    
   1698000   302.83777     -5.081507       0              58.294011      2037.7412    
   1699000   301.77773     -4.3503965      0              58.803285      2069.7878    
   1700000   294.39016     -4.9028232      0              56.704846      2013.9807    
   1701000   305.0692      -3.74637        0              60.096126      2180.1408    
   1702000   290.59976     -5.3071016      0              55.507342      2102.8973    
   1703000   302.75661     -4.9153168      0              58.443217      2057.6593    
   1704000   292.35101     -3.8632608      0              57.31767       2193.5876    
   1705000   301.66271     -3.1263629      0              60.003249      2141.5211    
   1706000   301.67961     -6.468542       0              56.664606      2007.7687    
   1707000   301.19619     -2.9609575      0              60.071025      2120.6066    
   1708000   295.78171     -4.7533988      0              57.145484      2057.6174    
   1709000   304.03017     -3.5030496      0              60.122005      2226.0895    
   1710000   291.57441     -3.8836876      0              57.134724      2217.4467    
   1711000   309.18403     -3.9941594      0              60.709454      2185.3976    
   1712000   289.40019     -4.9949137      0              55.568494      2060.3759    
   1713000   293.26608     -3.589542       0              57.782889      2122.1699    
   1714000   299.93273     -5.3560645      0              57.41151       2143.687     
   1715000   309.10451     -5.0770504      0              59.609922      2065.372     
   1716000   296.66464     -5.116074       0              56.967581      2138.7602    
   1717000   290.69726     -4.1233726      0              56.711475      2089.4661    
   1718000   312.56272     -5.2283009      0              60.182379      1981.3681    
   1719000   312.33251     -3.9333767      0              61.429127      2196.183     
   1720000   291.80722     -3.8881691      0              57.178963      2132.4587    
   1721000   302.47534     -4.6740882      0              58.625584      2137.6321    
   1722000   300.37621     -4.0977137      0              58.762669      2113.67      
   1723000   296.56631     -5.7970775      0              56.265999      2063.2703    
   1724000   300.34692     -6.394134       0              56.460119      2071.1957    
   1725000   304.40954     -4.8042704      0              58.900176      2148.191     
   1726000   298.85555     -4.8690529      0              57.673098      2111.9852    
   1727000   293.03327     -4.5543509      0              56.769359      2031.6525    
   1728000   309.12133     -5.6033945      0              59.087098      2080.8934    
   1729000   297.33734     -6.6260311      0              55.598401      1967.3207    
   1730000   304.65125     -4.7745823      0              58.980448      2092.2692    
   1731000   296.82642     -5.8836708      0              56.233839      1967.1787    
   1732000   294.96717     -4.6256608      0              57.10276       2123.8349    
   1733000   302.92256     -5.6236286      0              57.769635      2014.2629    
   1734000   295.95057     -4.4730534      0              57.461166      2068.6443    
   1735000   295.04682     -5.3212137      0              56.423875      2084.4839    
   1736000   298.8403      -3.9564088      0              58.582551      2136.377     
   1737000   302.3709      -5.4769271      0              57.800888      2077.6838    
   1738000   301.98973     -5.0189998      0              58.179048      2104.2684    
   1739000   288.87175     -5.0867491      0              55.36607       2041.1731    
   1740000   311.25631     -4.8406205      0              60.296665      2155.9552    
   1741000   303.48621     -5.0037186      0              58.5075        2093.3164    
   1742000   305.17483     -4.8793633      0              58.985238      2125.2522    
   1743000   299.67177     -4.3715436      0              58.34142       2147.2498    
   1744000   293.7346      -4.5358499      0              56.934628      2046.2106    
   1745000   303.57707     -4.3736641      0              59.156569      2025.4503    
   1746000   298.07941     -5.1505207      0              57.229206      2098.0412    
   1747000   296.22861     -3.9132156      0              58.07919       2081.8047    
   1748000   301.56602     -4.9213488      0              58.188028      2084.3571    
   1749000   299.17923     -3.2054615      0              59.404427      2182.7767    
   1750000   295.45732     -5.1794021      0              56.651594      2045.8933    
   1751000   299.17456     -5.1545346      0              57.454375      2045.1875    
   1752000   297.35132     -3.738768       0              58.488589      2055.3441    
   1753000   302.79602     -3.7786911      0              59.58809       2178.1777    
   1754000   314.44453     -5.5572454      0              60.247245      2032.9934    
   1755000   299.47343     -5.0738971      0              57.597559      2031.3635    
   1756000   302.73054     -5.2448525      0              58.108225      2104.0301    
   1757000   299.35953     -4.6135275      0              58.034092      2063.4976    
   1758000   302.51939     -3.8932664      0              59.415624      2102.6915    
   1759000   291.75999     -4.9398091      0              56.117439      2075.2495    
   1760000   310.72373     -4.135404       0              60.890427      2099.9879    
   1761000   296.02075     -4.8796208      0              57.069285      2127.7062    
   1762000   287.8384      -5.1025492      0              55.134019      1972.916     
   1763000   306.13496     -4.0279852      0              60.037543      2188.8701    
   1764000   309.72284     -5.6284214      0              59.187951      2119.9883    
   1765000   296.69652     -4.5607904      0              57.529536      2024.4237    
   1766000   302.12404     -6.0055391      0              57.220617      2149.7627    
   1767000   301.25133     -5.6881987      0              57.355322      2065.7651    
   1768000   298.72813     -3.7116953      0              58.80379       2177.6722    
   1769000   308.75046     -4.5054227      0              60.107458      2109.0439    
   1770000   293.22668     -5.5040549      0              55.860129      1985.2303    
   1771000   298.25068     -3.8367089      0              58.57886       2034.5296    
   1772000   300.91678     -2.612681       0              60.360827      2221.1998    
   1773000   292.66169     -4.6121361      0              56.633812      2041.4632    
   1774000   301.27074     -5.8922586      0              57.155325      2101.7533    
   1775000   300.46044     -4.7119809      0              58.166029      2063.9925    
   1776000   307.52133     -5.1354704      0              59.220187      1965.9446    
   1777000   301.51618     -3.6346682      0              59.464279      2118.0312    
   1778000   306.70377     -3.3156053      0              60.86896       2132.2472    
   1779000   304.47211     -4.3731001      0              59.34444       2098.6274    
   1780000   288.88339     -4.0628371      0              56.392417      2168.4017    
   1781000   308.38449     -4.7431323      0              59.793162      2167.5161    
   1782000   301.32386     -4.1227522      0              58.935947      2175.6525    
   1783000   302.94694     -5.0945504      0              58.303815      1988.8789    
   1784000   302.51522     -4.2978943      0              59.010124      2101.468     
   1785000   295.12597     -5.424695       0              56.336958      1935.5577    
   1786000   298.17249     -4.6011802      0              57.798026      2123.4682    
   1787000   301.81019     -4.3787362      0              58.781738      2163.3729    
   1788000   289.11639     -3.3873647      0              57.11665       2105.1278    
   1789000   292.15775     -5.5781847      0              55.562304      2048.0363    
   1790000   305.29912     -4.6580282      0              59.232584      2102.9026    
   1791000   299.49039     -4.5523711      0              58.122634      2025.9496    
   1792000   309.70553     -4.495216       0              60.317533      2092.5804    
   1793000   292.06339     -5.7472419      0              55.373499      2122.4951    
   1794000   298.74329     -6.4409238      0              56.077734      2085.6269    
   1795000   293.34706     -4.8738989      0              56.515479      2073.8326    
   1796000   306.41537     -4.6648484      0              59.459363      2206.9254    
   1797000   319.31798     -5.7490303      0              61.075337      2105.392     
   1798000   295.03341     -3.6040142      0              58.138269      2091.8926    
   1799000   302.13378     -3.5269275      0              59.701265      2011.7907    
   1800000   297.92587     -3.2153771      0              59.132217      2124.9533    
   1801000   311.59563     -4.6520551      0              60.55624       2182.9647    
   1802000   300.06027     -4.0992414      0              58.695024      2096.6576    
   1803000   301.26082     -3.4999602      0              59.545547      2188.4358    
   1804000   305.04807     -6.6086525      0              57.22942       2019.3602    
   1805000   297.24744     -5.0641814      0              57.141437      2058.523     
   1806000   295.92456     -4.4431847      0              57.485591      2186.3982    
   1807000   300.91872     -4.9740767      0              57.999839      1954.9433    
   1808000   313.31603     -4.1052565      0              61.46307       2101.3752    
   1809000   293.12914     -4.9311885      0              56.412585      2029.784     
   1810000   296.83367     -5.6259103      0              56.493117      2041.6484    
   1811000   303.64922     -4.4497872      0              59.095545      2078.9886    
   1812000   293.1441      -4.1471898      0              57.199714      2036.2253    
   1813000   309.60629     -4.2133829      0              60.5786        2198.5324    
   1814000   293.19367     -3.7860105      0              57.571266      2173.1349    
   1815000   304.16957     -5.0585206      0              58.595706      2126.9224    
   1816000   305.97748     -4.8916468      0              59.140926      2003.5042    
   1817000   309.36059     -4.0298625      0              60.710701      2172.3135    
   1818000   296.166       -5.4035381      0              56.575765      2172.76      
   1819000   305.16422     -3.7316631      0              60.130716      2094.4155    
   1820000   307.20291     -5.9421292      0              58.346892      2139.6542    
   1821000   291.00403     -3.9922492      0              56.906796      2117.2947    
   1822000   299.22878     -3.9440298      0              58.676228      2146.5739    
   1823000   300.33707     -3.3250742      0              59.527118      2147.7242    
   1824000   299.98769     -4.7756818      0              58.003394      2102.2549    
   1825000   304.38972     -4.8696717      0              58.830627      1979.8116    
   1826000   303.90737     -5.1098759      0              58.489481      2100.5615    
   1827000   302.92349     -5.4867843      0              57.906673      2054.893     
   1828000   291.30324     -4.7670858      0              56.194577      2117.9909    
   1829000   292.7516      -5.2504451      0              56.014319      2067.3657    
   1830000   289.27414     -4.8542524      0              55.682776      2121.0079    
   1831000   289.94803     -3.8897469      0              56.788307      2093.4342    
   1832000   296.22736     -3.1885658      0              58.803577      2103.4628    
   1833000   301.47221     -3.0107239      0              60.079022      2130.9347    
   1834000   311.04589     -5.3506478      0              59.742603      2045.3727    
   1835000   302.06712     -5.1165903      0              58.097653      2131.7475    
   1836000   301.88069     -5.5567173      0              57.618512      2051.1715    
   1837000   308.18839     -2.3049373      0              62.190317      2175.4908    
   1838000   296.18807     -4.3394883      0              57.644434      2093.1831    
   1839000   288.19436     -4.3793135      0              55.931746      2053.1329    
   1840000   292.7088      -4.5743149      0              56.681493      2097.8445    
   1841000   301.69456     -4.3579161      0              58.77836       2155.0279    
   1842000   295.62451     -5.574403       0              56.291581      2039.17      
   1843000   303.06303     -6.562062       0              56.860598      2096.0695    
   1844000   305.13494     -6.9776459      0              56.878606      2023.4956    
   1845000   304.36143     -3.3247724      0              60.369605      2209.17      
   1846000   301.08361     -4.9411609      0              58.067261      2079.1533    
   1847000   296.64616     -4.6733734      0              57.406414      2164.7178    
   1848000   295.26607     -6.1211691      0              55.669803      2005.3763    
   1849000   308.64958     -4.0770598      0              60.51471       2110.2613    
   1850000   305.47207     -3.8180513      0              60.108753      2086.4088    
   1851000   305.09856     -3.0662794      0              60.782359      2167.2943    
   1852000   300.7953      -5.2895739      0              57.658513      2007.4378    
   1853000   312.72146     -5.5609767      0              59.882923      2115.9973    
   1854000   302.13958     -5.7764537      0              57.452953      2098.7135    
   1855000   302.43966     -4.0432706      0              59.248935      2150.5972    
   1856000   289.64262     -4.2717833      0              56.342359      2107.447     
   1857000   302.40835     -4.6094638      0              58.67619       2092.1139    
   1858000   307.88631     -4.6763684      0              59.755669      2124.6406    
   1859000   304.61982     -5.2069305      0              58.541521      2059.1049    
   1860000   301.83636     -4.0002514      0              59.1657        2181.936     
   1861000   299.31165     -5.379315       0              57.258284      1997.7261    
   1862000   301.34823     -3.9429276      0              59.120871      2134.4899    
   1863000   302.37238     -5.4644146      0              57.813712      2086.7048    
   1864000   289.09981     -4.6436132      0              55.856932      1981.4179    
   1865000   291.80329     -5.4542825      0              55.612026      2069.2658    
   1866000   293.98462     -6.3733987      0              55.149402      2127.114     
   1867000   302.81065     -6.1653761      0              57.204467      2049.1446    
   1868000   306.28669     -4.5908439      0              59.506437      2033.9352    
   1869000   300.54831     -4.6473922      0              58.249007      1987.5854    
   1870000   301.61395     -4.6139369      0              58.505469      2137.1283    
   1871000   289.47622     -4.4286188      0              56.150699      2119.8462    
   1872000   308.42768     -4.6606491      0              59.884682      2076.9749    
   1873000   288.65843     -5.0496673      0              55.358511      2071.9517    
   1874000   304.61752     -4.2802405      0              59.467729      2031.7299    
   1875000   300.26084     -4.1659781      0              58.670261      2071.1942    
   1876000   294.59563     -2.495877       0              59.154791      2212.4785    
   1877000   292.5752      -4.1936807      0              57.034167      2071.5247    
   1878000   308.90869     -5.909532       0              58.736462      2097.4494    
   1879000   305.21315     -3.7930308      0              60.079589      2096.3746    
   1880000   301.41727     -1.5547356      0              61.523511      2113.7179    
   1881000   305.42372     -3.4293237      0              60.487362      2136.316     
   1882000   309.88198     -2.8480355      0              62.001641      2228.9105    
   1883000   293.08892     -4.7811691      0              56.554188      2123.7066    
   1884000   299.77044     -4.234218       0              58.499394      2091.7726    
   1885000   310.19452     -5.1573696      0              59.757712      2098.2524    
   1886000   306.40097     -5.2219798      0              58.899217      2075.4318    
   1887000   297.41389     -3.8566226      0              58.383828      2123.1973    
   1888000   313.97863     -4.6025081      0              61.104482      2124.4581    
   1889000   302.09109     -5.5869936      0              57.632266      2145.4523    
   1890000   302.83323     -5.6439931      0              57.730575      2108.3271    
   1891000   302.09824     -3.8444724      0              59.376283      2107.6511    
   1892000   299.74438     -4.2297641      0              58.498394      2079.3814    
   1893000   303.06505     -5.4836683      0              57.939413      2163.5043    
   1894000   296.33669     -6.1098658      0              55.905159      2089.4149    
   1895000   294.55787     -5.0258284      0              56.616938      2132.7664    
   1896000   297.07931     -3.8222298      0              58.348203      2129.7856    
   1897000   304.14191     -4.4415112      0              59.206927      2064.2865    
   1898000   300.88343     -4.269638       0              58.696892      2179.1836    
   1899000   294.77054     -2.2884069      0              59.398865      2079.2766    
   1900000   307.38864     -4.4073265      0              59.920562      2169.286     
   1901000   294.12097     -5.1566456      0              56.394689      2021.7065    
   1902000   301.61079     -4.69157        0              58.427176      2181.2556    
   1903000   294.94493     -4.9189569      0              56.80481       2188.8067    
   1904000   301.50817     -4.4507535      0              58.646518      2124.6348    
   1905000   300.08023     -5.683153       0              57.11529       2068.5874    
   1906000   297.03422     -6.2224326      0              55.938565      2026.016     
   1907000   302.08303     -3.9503466      0              59.267225      2181.7228    
   1908000   289.25163     -5.3352243      0              55.197094      2075.9728    
   1909000   297.29951     -3.0018952      0              59.214619      2036.6693    
   1910000   309.54101     -3.8109179      0              60.967402      2106.7616    
   1911000   296.78047     -5.877637       0              56.230257      2055.8965    
   1912000   299.07721     -4.9265981      0              57.66194       2136.7733    
   1913000   293.50286     -3.0337505      0              58.388231      2161.852     
   1914000   281.81337     -5.4780952      0              53.497601      2096.0443    
   1915000   305.8934      -4.7109469      0              59.30403       2007.1142    
   1916000   295.78443     -6.2009325      0              55.698518      2101.3614    
   1917000   296.13431     -5.0506419      0              56.922029      2147.7774    
   1918000   301.87886     -2.9265062      0              60.24834       2132.4549    
   1919000   297.93361     -4.6438279      0              57.705387      2129.8631    
   1920000   302.42738     -4.0857048      0              59.203932      2110.6223    
   1921000   299.28872     -3.1209268      0              59.511874      2169.9877    
   1922000   303.57839     -4.7200662      0              58.810444      2087.8724    
   1923000   299.73946     -2.6785777      0              60.04855       2099.952     
   1924000   292.47683     -3.8040174      0              57.403244      2169.8339    
   1925000   300.95519     -3.7861441      0              59.195403      2114.295     
   1926000   302.88428     -4.3479533      0              59.037299      2142.8577    
   1927000   294.41934     -3.7718763      0              57.8419        2115.5854    
   1928000   312.11515     -5.5185132      0              59.798503      2217.8725    
   1929000   293.55926     -5.0821388      0              56.351646      2211.1333    
   1930000   296.56354     -3.8582857      0              58.20421       2128.1928    
   1931000   299.47715     -5.2184716      0              57.453763      2043.1113    
   1932000   303.6083      -5.6625959      0              57.874174      1986.3791    
   1933000   301.44676     -5.9059583      0              57.178461      2090.0902    
   1934000   293.29199     -4.3858524      0              56.992         2098.0537    
   1935000   301.38348     -4.8135031      0              58.257673      2060.7936    
   1936000   294.49355     -5.1152802      0              56.514025      2145.5617    
   1937000   295.60628     -4.8966382      0              56.965531      1943.1069    
   1938000   300.61193     -3.7365613      0              59.173152      2156.2704    
   1939000   301.19927     -2.1447258      0              60.887901      2185.7825    
   1940000   291.0769      -4.2208248      0              56.693472      2119.48      
   1941000   288.72592     -4.7031806      0              55.71912       2100.3484    
   1942000   310.82405     -4.3785764      0              60.668248      2128.9073    
   1943000   295.83929     -5.5876486      0              56.323283      2141.574     
   1944000   293.44547     -4.7864899      0              56.623481      2069.2108    
   1945000   312.1731      -3.6507083      0              61.678436      2137.6008    
   1946000   299.76185     -4.7694332      0              57.962381      2237.5419    
   1947000   290.82456     -5.5387386      0              55.32275       2043.2001    
   1948000   303.592       -3.4140666      0              60.119292      2123.7861    
   1949000   303.49742     -6.0479359      0              57.465629      1998.2262    
   1950000   300.96984     -4.7411038      0              58.24351       2123.3947    
   1951000   296.54481     -5.5464432      0              56.512135      2043.6756    
   1952000   285.06681     -4.2622208      0              55.394331      2096.2464    
   1953000   298.50062     -5.4596755      0              57.008199      2173.2343    
   1954000   298.70368     -4.4776678      0              58.0327        2138.1115    
   1955000   297.83028     -5.2197353      0              57.107854      2078.3361    
   1956000   299.65571     -4.090873       0              58.61873       2127.2016    
   1957000   303.13547     -3.9286169      0              59.509202      2109.7476    
   1958000   294.40757     -4.8179416      0              56.79337       2158.8963    
   1959000   305.22145     -4.4720293      0              59.402327      2126.2962    
   1960000   290.64164     -3.8167428      0              57.006465      2138.2138    
   1961000   310.18401     -4.1486749      0              60.764208      2137.8079    
   1962000   296.41491     -4.5035845      0              57.527809      1996.6214    
   1963000   300.56521     -4.7633622      0              58.136572      2023.8261    
   1964000   299.21048     -3.4270498      0              59.189377      2110.5265    
   1965000   298.97737     -3.45908        0              59.108564      2093.7119    
   1966000   305.09235     -5.1843354      0              58.663005      2029.2206    
   1967000   298.1437      -4.7335387      0              57.659643      2027.2841    
   1968000   301.66587     -4.8040978      0              58.326174      2004.2457    
   1969000   299.58992     -5.8364822      0              56.859353      2170.969     
   1970000   306.74805     -4.987524       0              59.206308      2133.2892    
   1971000   301.01507     -4.1659121      0              58.828167      2118.6716    
   1972000   296.8171      -4.4657491      0              57.649811      2069.1096    
   1973000   298.3358      -4.1627817      0              58.2706        2093.1333    
   1974000   294.12471     -4.9939         0              56.558218      2159.9737    
   1975000   298.79883     -4.8914649      0              57.638816      2000.2264    
   1976000   305.08729     -4.8192735      0              59.027007      2072.6964    
   1977000   299.7194      -5.0582232      0              57.664708      2023.9044    
   1978000   308.40446     -3.6990035      0              60.841468      2167.4653    
   1979000   301.71165     -6.0584644      0              57.081388      2080.4054    
   1980000   296.30878     -4.4000163      0              57.609167      2012.1038    
   1981000   297.90986     -4.0791198      0              58.265125      2164.1812    
   1982000   305.19057     -5.2138813      0              58.654012      2135.1337    
   1983000   305.05208     -4.7687258      0              59.070186      2088.2599    
   1984000   301.39273     -4.307466       0              58.765646      2153.3729    
   1985000   306.61007     -3.4024268      0              60.76253       2207.3051    
   1986000   298.70415     -3.9372562      0              58.573212      2037.4592    
   1987000   299.01745     -5.0638068      0              57.512225      2025.9474    
   1988000   298.65656     -5.4927911      0              57.007716      2053.7926    
   1989000   306.5125      -4.8742256      0              59.270311      2091.3872    
   1990000   291.46219     -4.3759508      0              56.618975      2011.1192    
   1991000   294.51927     -3.6830456      0              57.951642      2143.7727    
   1992000   304.32443     -3.8116112      0              59.875024      2109.5351    
   1993000   298.72764     -4.6521053      0              57.863277      2006.6672    
   1994000   287.73304     -3.6568177      0              56.557701      2032.5345    
   1995000   291.28395     -4.5567277      0              56.400898      2100.0228    
   1996000   301.32559     -4.3477119      0              58.711351      2002.4453    
   1997000   293.32175     -3.7722648      0              57.611816      2020.705     
   1998000   307.96642     -3.830198       0              60.618604      2093.5953    
   1999000   306.5492      -4.9879701      0              59.164247      2093.1801    
   2000000   303.99184     -3.926136       0              59.690898      2073.0302    
   2000101   297.69427     -4.4264434      0              57.872684      2033.4129    
Loop time of 11566.3 on 16 procs for 2000000 steps with 1620 atoms

Performance: 7.470 ns/day, 3.213 hours/ns, 172.915 timesteps/s
99.7% CPU use with 16 MPI tasks x 1 OpenMP threads

MPI task timing breakdown:
Section |  min time  |  avg time  |  max time  |%varavg| %total
---------------------------------------------------------------
Pair    | 9233       | 9925.4     | 10500      | 444.3 | 85.81
Bond    | 0.98527    | 1.0214     | 1.0793     |   2.7 |  0.01
Neigh   | 14.682     | 15.064     | 15.412     |   7.1 |  0.13
Comm    | 1006.7     | 1581.4     | 2274.3     |1113.8 | 13.67
Output  | 0.98795    | 0.9884     | 0.98988    |   0.0 |  0.01
Modify  | 24.176     | 24.726     | 25.099     |   4.5 |  0.21
Other   |            | 17.71      |            |       |  0.15

Nlocal:         101.25 ave         107 max          97 min
Histogram: 2 2 1 0 3 3 2 1 1 1
Nghost:        5054.25 ave        5106 max        5015 min
Histogram: 3 1 2 4 1 1 0 1 1 2
Neighs:        51681.4 ave       56251 max       46321 min
Histogram: 2 2 1 1 3 0 0 1 3 3

Total # of neighbors = 826903
Ave neighs/atom = 510.43395
Ave special neighs/atom = 0
Neighbor list builds = 10425
Dangerous builds = 0
comm_modify cutoff 27.58
compute myRDF all rdf 1129 cutoff 22.58
fix 2 all ave/time 1 1 1 c_myRDF[*] file ljg2_nvt_45rdf.rdf mode vector
run 0 pre yes post no
Generated 0 of 0 mixed pair_coeff terms from geometric mixing rule
WARNING: Compute rdf cutoff less than neighbor cutoff - forcing a needless neighbor list build (src/compute_rdf.cpp:179)
Neighbor list info ...
  update every 1 steps, delay 0 steps, check yes
  max neighbors/atom: 200000, page size: 2000000000
  master list distance cutoff = 27
  ghost atom cutoff = 27.58
  binsize = 13.5, bins = 4 5 4
  4 neighbor lists, perpetual/occasional/extra = 3 1 0
  (1) pair lj/cut, perpetual
      attributes: half, newton on
      pair build: half/bin/newton
      stencil: half/bin/3d
      bin: standard
  (2) pair gauss/cut, perpetual, copy from (1)
      attributes: half, newton on
      pair build: copy
      stencil: none
      bin: none
  (3) pair gauss/cut, perpetual, copy from (1)
      attributes: half, newton on
      pair build: copy
      stencil: none
      bin: none
  (4) compute rdf, occasional
      attributes: half, newton on, cut 24.58
      pair build: half/bin/newton
      stencil: half/bin/3d
      bin: standard
Per MPI rank memory allocation (min/avg/max) = 3.053e+04 | 3.053e+04 | 3.053e+04 Mbytes
   Step          Temp          E_pair         E_mol          TotEng         Press     
   2000101   297.69427     -4.4264434      0              57.872684      2033.4129    
Loop time of 4.21113e-06 on 16 procs for 0 steps with 1620 atoms

uncompute myRDF
unfix 2
write_data ljg2_nvt_45/ca_md.data nocoeff nofix
System init for write_data ...
Generated 0 of 0 mixed pair_coeff terms from geometric mixing rule
Neighbor list info ...
  update every 1 steps, delay 0 steps, check yes
  max neighbors/atom: 200000, page size: 2000000000
  master list distance cutoff = 27
  ghost atom cutoff = 27.58
  binsize = 13.5, bins = 4 5 4
  3 neighbor lists, perpetual/occasional/extra = 3 0 0
  (1) pair lj/cut, perpetual
      attributes: half, newton on
      pair build: half/bin/newton
      stencil: half/bin/3d
      bin: standard
  (2) pair gauss/cut, perpetual, copy from (1)
      attributes: half, newton on
      pair build: copy
      stencil: none
      bin: none
  (3) pair gauss/cut, perpetual, copy from (1)
      attributes: half, newton on
      pair build: copy
      stencil: none
      bin: none
Total wall time: 3:12:47
