region box block 0 52.794504272175 0 54.794296100667 0 45.195295323908
units metal
dimension 3
boundary p p p
atom_style full
create_box 1 box
Created orthogonal box = (0 0 0) to (52.794504 54.794296 45.195295)
  2 by 4 by 2 MPI processor grid
create_atoms 1 random 1620 46 box
Created 1620 atoms
  using lattice units in orthogonal box = (0 0 0) to (52.794504 54.794296 45.195295)
  create_atoms CPU = 0.005 seconds
mass 1 40.078
pair_style hybrid/overlay lj/cut 25 gauss/cut 25 gauss/cut 25
pair_coeff 1 1 lj/cut 0.009507177838705264 3.7584971993521488
pair_coeff 1 1 gauss/cut 1 -0.0597999248039827 5.991246456844763 0.601172550524922
pair_coeff 1 1 gauss/cut 2 0.0726183915985775 5.919659952808235 0.9307156951487607
run 1
WARNING: No fixes with time integration, atoms won't move (src/verlet.cpp:60)
Generated 0 of 0 mixed pair_coeff terms from geometric mixing rule
Neighbor list info ...
  update every 1 steps, delay 10 steps, check yes
  max neighbors/atom: 2000, page size: 100000
  master list distance cutoff = 27
  ghost atom cutoff = 27
  binsize = 13.5, bins = 4 5 4
  3 neighbor lists, perpetual/occasional/extra = 3 0 0
  (1) pair lj/cut, perpetual
      attributes: half, newton on
      pair build: half/bin/newton
      stencil: half/bin/3d
      bin: standard
  (2) pair gauss/cut, perpetual, copy from (1)
      attributes: half, newton on
      pair build: copy
      stencil: none
      bin: none
  (3) pair gauss/cut, perpetual, copy from (1)
      attributes: half, newton on
      pair build: copy
      stencil: none
      bin: none
Per MPI rank memory allocation (min/avg/max) = 6.987 | 6.997 | 7.002 Mbytes
   Step          Temp          E_pair         E_mol          TotEng         Press     
         0   0              2.8266405e+18  0              2.8266405e+18  1.3855545e+20
         1   0              2.8266405e+18  0              2.8266405e+18  1.3855545e+20
Loop time of 0.00870023 on 16 procs for 1 steps with 1620 atoms

Performance: 9.931 ns/day, 2.417 hours/ns, 114.939 timesteps/s
95.4% CPU use with 16 MPI tasks x 1 OpenMP threads

MPI task timing breakdown:
Section |  min time  |  avg time  |  max time  |%varavg| %total
---------------------------------------------------------------
Pair    | 0.0047311  | 0.0063756  | 0.0083218  |   1.3 | 73.28
Bond    | 5.61e-07   | 6.1387e-07 | 7.22e-07   |   0.0 |  0.01
Neigh   | 0          | 0          | 0          |   0.0 |  0.00
Comm    | 0.00023106 | 0.0021854  | 0.0038376  |   2.2 | 25.12
Output  | 9.4368e-05 | 9.5297e-05 | 9.6418e-05 |   0.0 |  1.10
Modify  | 1.017e-06  | 1.1444e-06 | 1.375e-06  |   0.0 |  0.01
Other   |            | 4.221e-05  |            |       |  0.49

Nlocal:         101.25 ave         130 max          81 min
Histogram: 2 2 1 4 1 1 3 1 0 1
Nghost:        5064.94 ave        5184 max        4892 min
Histogram: 1 0 1 3 3 1 1 0 1 5
Neighs:        51652.6 ave       68219 max       38851 min
Histogram: 3 1 0 4 1 3 0 3 0 1

Total # of neighbors = 826441
Ave neighs/atom = 510.14877
Ave special neighs/atom = 0
Neighbor list builds = 0
Dangerous builds = 0
thermo 1000
neighbor 2.0 bin
neigh_modify every 1 delay 0 check yes one 200000 page 2000000000
minimize 0.0 1.0e-8 100 1000
Generated 0 of 0 mixed pair_coeff terms from geometric mixing rule
Neighbor list info ...
  update every 1 steps, delay 0 steps, check yes
  max neighbors/atom: 200000, page size: 2000000000
  master list distance cutoff = 27
  ghost atom cutoff = 27
  binsize = 13.5, bins = 4 5 4
  3 neighbor lists, perpetual/occasional/extra = 3 0 0
  (1) pair lj/cut, perpetual
      attributes: half, newton on
      pair build: half/bin/newton
      stencil: half/bin/3d
      bin: standard
  (2) pair gauss/cut, perpetual, copy from (1)
      attributes: half, newton on
      pair build: copy
      stencil: none
      bin: none
  (3) pair gauss/cut, perpetual, copy from (1)
      attributes: half, newton on
      pair build: copy
      stencil: none
      bin: none
Per MPI rank memory allocation (min/avg/max) = 2.29e+04 | 2.29e+04 | 2.29e+04 Mbytes
   Step          Temp          E_pair         E_mol          TotEng         Press     
         1   0              2.8266405e+18  0              2.8266405e+18  1.3855545e+20
       101   0             -45.642335      0             -45.642335      744.72894    
Loop time of 1.21783 on 16 procs for 100 steps with 1620 atoms

99.7% CPU use with 16 MPI tasks x 1 OpenMP threads

Minimization stats:
  Stopping criterion = max iterations
  Energy initial, next-to-last, final = 
    2.82664046641229e+18  -45.2778605563139  -45.6423354806115
  Force two-norm initial, final = 5.7792138e+20 0.59370142
  Force max component initial, final = 3.6918576e+20 0.049577655
  Final line search alpha, max atom move = 1 0.049577655
  Iterations, force evaluations = 100 152

MPI task timing breakdown:
Section |  min time  |  avg time  |  max time  |%varavg| %total
---------------------------------------------------------------
Pair    | 0.71199    | 0.91444    | 1.1691     |  13.1 | 75.09
Bond    | 7.2896e-05 | 7.5976e-05 | 8.0789e-05 |   0.0 |  0.01
Neigh   | 0.0072678  | 0.008556   | 0.010211   |   0.9 |  0.70
Comm    | 0.03417    | 0.29029    | 0.4939     |  23.4 | 23.84
Output  | 3.8301e-05 | 3.9291e-05 | 4.2035e-05 |   0.0 |  0.00
Modify  | 0          | 0          | 0          |   0.0 |  0.00
Other   |            | 0.004429   |            |       |  0.36

Nlocal:         101.25 ave         119 max          86 min
Histogram: 1 1 2 3 3 1 2 2 0 1
Nghost:        5072.62 ave        5177 max        4961 min
Histogram: 1 2 2 1 1 3 0 3 1 2
Neighs:        51662.8 ave       64368 max       42223 min
Histogram: 2 2 1 2 2 3 2 0 1 1

Total # of neighbors = 826605
Ave neighs/atom = 510.25
Ave special neighs/atom = 0
Neighbor list builds = 6
Dangerous builds = 0
timestep 0.0005
fix 1 all nvt temp 300.0 300.0 $(100.0*dt)
fix 1 all nvt temp 300.0 300.0 0.050000000000000002776
fix removeMomentum all momentum 1 linear 1 1 1
dump 1 all custom 1000 ljg2_nvt_46/ca.traj id mol type mass x y z
dump_modify 1 sort id
run 2000000
Generated 0 of 0 mixed pair_coeff terms from geometric mixing rule
Per MPI rank memory allocation (min/avg/max) = 2.289e+04 | 2.289e+04 | 2.289e+04 Mbytes
   Step          Temp          E_pair         E_mol          TotEng         Press     
       101   0             -45.642335      0             -45.642335      744.72894    
      1000   207.07812     -40.080195      0              3.2554936      1241.3199    
      2000   297.25588     -11.095593      0              51.111791      1733.3205    
      3000   303.75227     -7.9041733      0              55.662726      1957.7102    
      4000   298.84998     -9.4825084      0              53.058478      1913.874     
      5000   301.93403     -6.075625       0              57.110766      2106.8913    
      6000   295.29721     -4.5900567      0              57.207433      2060.5813    
      7000   295.87979     -4.7056959      0              57.21371       1984.038     
      8000   296.60874     -5.3738413      0              56.698114      1976.5366    
      9000   303.5725      -3.7339861      0              59.795291      2138.4547    
     10000   302.96629     -6.1179181      0              57.284497      2038.814     
     11000   316.4958      -6.0777312      0              60.156034      2047.3652    
     12000   301.97531     -3.4646196      0              59.73041       2100.5285    
     13000   299.50967     -4.9948581      0              57.684182      2089.0129    
     14000   298.55716     -5.1437817      0              57.335925      2057.9609    
     15000   303.24018     -4.7362939      0              58.723437      1935.2308    
     16000   286.82983     -3.8476017      0              56.1779        2170.4097    
     17000   297.73517     -5.347799       0              56.959887      2089.6487    
     18000   303.27009     -5.3991785      0              58.066813      2154.485     
     19000   291.04514     -3.2641806      0              57.643469      2003.6096    
     20000   292.48147     -4.6895705      0              56.518662      2188.2282    
     21000   295.00191     -4.3640229      0              57.371669      2121.2956    
     22000   291.37873     -5.17588        0              55.80158       2038.4375    
     23000   301.9729      -4.9679492      0              58.226575      1873.7106    
     24000   291.53772     -4.0796209      0              56.931113      1978.8387    
     25000   307.83525     -4.172923       0              60.24843       2111.0225    
     26000   297.95074     -3.2562905      0              59.096508      2126.5464    
     27000   299.93695     -4.6975329      0              58.070926      2112.5766    
     28000   301.1566      -2.9794247      0              60.044272      2071.9792    
     29000   296.61319     -4.8411374      0              57.23175       2085.0853    
     30000   306.53572     -4.65198        0              59.497416      2077.5482    
     31000   295.59456     -3.5820531      0              58.277663      2072.5036    
     32000   291.54287     -3.1408251      0              57.870985      1985.8192    
     33000   306.27594     -4.1653177      0              59.929715      2060.0681    
     34000   284.85165     -5.1823749      0              54.429149      2025.1643    
     35000   295.71288     -4.1599079      0              57.72457       2108.7999    
     36000   302.8667      -4.3598004      0              59.021772      2079.3191    
     37000   303.77469     -3.6505352      0              59.921055      2127.634     
     38000   294.10252     -4.659088       0              56.888386      2119.7346    
     39000   299.96282     -5.6977682      0              57.076104      2112.4209    
     40000   298.9784      -4.3813536      0              58.186506      2199.8191    
     41000   293.37044     -4.7711131      0              56.623158      2049.4275    
     42000   313.32793     -4.2543414      0              61.316475      2099.727     
     43000   300.67726     -4.3766533      0              58.546731      2124.0835    
     44000   296.19072     -5.0971847      0              56.887291      2108.6259    
     45000   296.05355     -3.806034       0              58.149735      2010.9149    
     46000   295.3339      -4.3449886      0              57.460179      2040.7191    
     47000   309.99385     -3.75121        0              61.121877      2093.481     
     48000   302.65363     -4.2864917      0              59.050491      2141.7146    
     49000   298.26545     -3.4379509      0              58.980709      2069.2028    
     50000   298.13792     -4.7067167      0              57.685254      2109.9055    
     51000   294.55108     -2.8142247      0              58.82712       2163.3455    
     52000   299.27568     -4.9876219      0              57.642451      2040.2091    
     53000   287.30378     -5.3137803      0              54.810906      2009.3087    
     54000   299.51664     -4.3608596      0              58.319639      2038.8746    
     55000   312.38938     -4.7247026      0              60.649703      2074.3366    
     56000   299.70769     -4.0401773      0              58.680302      2176.0728    
     57000   291.14702     -2.9907539      0              57.938217      2194.4976    
     58000   299.95175     -4.6094182      0              58.162136      2054.002     
     59000   304.95332     -4.6944967      0              59.123748      2050.8292    
     60000   298.3342      -5.7911037      0              56.641943      1989.1396    
     61000   310.13315     -6.3732724      0              58.528966      2105.4577    
     62000   299.81398     -2.4850938      0              60.257631      2113.7254    
     63000   289.73452     -4.0496267      0              56.583746      2176.4601    
     64000   296.59136     -5.6332277      0              56.43509       2164.3227    
     65000   307.32726     -4.7454001      0              59.569643      2155.5101    
     66000   300.42268     -1.7875863      0              61.08252       2242.7704    
     67000   294.7904      -3.2940017      0              58.397426      2068.7467    
     68000   299.52605     -4.0090189      0              58.67345       2109.9608    
     69000   294.71804     -4.1024182      0              57.573867      2170.7394    
     70000   302.33638     -4.2560104      0              59.014581      2130.7645    
     71000   299.85389     -4.1741601      0              58.576915      2094.7335    
     72000   303.89388     -4.3121989      0              59.284335      2088.5633    
     73000   294.99561     -4.0662811      0              57.668091      1955.7599    
     74000   301.04034     -3.7254711      0              59.273895      2074.6915    
     75000   293.18095     -4.3359067      0              57.018708      2128.8936    
     76000   300.043       -3.7394748      0              59.051175      2219.4849    
     77000   299.37052     -5.0390332      0              57.610887      2026.0776    
     78000   310.03094     -2.5809117      0              62.299938      2103.723     
     79000   313.68741     -2.890857       0              62.755189      2244.1992    
     80000   301.04284     -5.0749981      0              57.924892      2100.1275    
     81000   306.96473     -4.9447159      0              59.29446       1973.9394    
     82000   310.35497     -5.8963221      0              59.052337      1982.8438    
     83000   300.28395     -2.8973988      0              59.943676      2187.9361    
     84000   298.72343     -5.2532887      0              57.261212      2028.9574    
     85000   301.93421     -5.2004633      0              57.985966      2091.2333    
     86000   304.00569     -3.3815108      0              60.238422      2146.5506    
     87000   286.15251     -6.1543355      0              53.729423      1952.2956    
     88000   306.80576     -5.7806667      0              58.425242      2114.0036    
     89000   306.88        -6.2595883      0              57.961857      2028.9716    
     90000   296.8763      -6.2265778      0              55.901371      1971.9656    
     91000   305.21947     -5.4319445      0              58.441997      2052.769     
     92000   297.1458      -4.8674132      0              57.316934      2018.637     
     93000   311.40101     -4.0614276      0              61.106138      2045.8472    
     94000   287.05809     -4.9182756      0              55.154995      2034.9685    
     95000   308.80093     -4.1204661      0              60.502977      2100.9735    
     96000   300.85029     -4.9513549      0              58.008239      2163.8353    
     97000   295.4065      -5.9119555      0              55.908406      2032.5227    
     98000   307.79197     -3.5791615      0              60.833133      2153.68      
     99000   297.22099     -2.3303818      0              59.8697        2265.4449    
    100000   301.05899     -3.1465978      0              59.856672      2099.5088    
    101000   295.1009      -4.9568367      0              56.799569      2052.2133    
    102000   307.54729     -3.8624635      0              60.498627      2105.2317    
    103000   309.6877      -4.6719573      0              60.13706       2086.1071    
    104000   292.81072     -3.8355791      0              57.441557      2218.1164    
    105000   294.65105     -4.493938       0              57.168329      2089.4324    
    106000   290.22403     -3.3962255      0              57.339588      2023.0685    
    107000   297.46706     -6.1103596      0              56.141219      2032.184     
    108000   300.82864     -5.1997617      0              57.755302      2125.987     
    109000   299.95488     -2.7029419      0              60.069267      2170.8331    
    110000   306.477       -5.4268428      0              58.710266      2001.0556    
    111000   291.55631     -4.431999       0              56.582625      2042.7777    
    112000   308.15433     -4.2583423      0              60.229784      2022.5029    
    113000   302.77266     -4.4262832      0              58.93561       2106.9489    
    114000   310.06471     -5.9445103      0              58.943406      2126.075     
    115000   288.03861     -4.6086432      0              55.669822      2064.3969    
    116000   304.82753     -4.6651479      0              59.126772      2095.2119    
    117000   308.39587     -4.6582757      0              59.880399      2070.5779    
    118000   294.41897     -3.8869969      0              57.726702      2181.5478    
    119000   304.11364     -3.9474372      0              59.695086      2192.1193    
    120000   289.92702     -4.3300214      0              56.343637      2065.5609    
    121000   293.39113     -5.6778618      0              55.720738      2050.1803    
    122000   303.18607     -5.1505476      0              58.29786       1994.9285    
    123000   302.18106     -5.1919859      0              58.046102      2100.132     
    124000   304.71032     -3.9822243      0              59.785166      2082.7142    
    125000   288.78948     -4.8921502      0              55.543452      1938.54      
    126000   295.48395     -5.26101        0              56.575558      2126.5718    
    127000   305.00624     -5.7399347      0              58.089384      2098.92      
    128000   295.605       -5.1220395      0              56.739863      2047.0718    
    129000   313.67374     -4.1642431      0              61.478942      2070.6373    
    130000   307.29902     -4.3723562      0              59.936778      2208.8198    
    131000   301.3398      -4.3065298      0              58.755505      2070.0176    
    132000   295.40124     -4.5768436      0              57.242416      2059.2327    
    133000   325.23866     -6.6327402      0              61.430661      2015.4174    
    134000   297.29726     -5.1719796      0              57.044064      2065.2624    
    135000   297.27677     -3.7716175      0              58.440138      2201.7209    
    136000   309.91779     -5.235725       0              59.621444      2008.4297    
    137000   297.55553     -3.8964476      0              58.373646      2053.3272    
    138000   305.39467     -4.8076004      0              59.103006      1987.8733    
    139000   306.51816     -5.0333998      0              59.112323      2049.7091    
    140000   298.43853     -4.4662536      0              57.988626      2058.4404    
    141000   282.15765     -3.2623782      0              55.785367      2063.9467    
    142000   300.90858     -5.4414823      0              57.53031       2155.1745    
    143000   300.33171     -4.8689981      0              57.982071      2053.4269    
    144000   308.4881      -4.6597934      0              59.898183      2022.668     
    145000   308.22646     -3.4593377      0              61.043883      2086.0396    
    146000   290.95601     -4.9742632      0              55.914734      2018.1495    
    147000   288.62722     -4.8015891      0              55.600056      2093.1215    
    148000   316.43212     -5.7144403      0              60.505999      2003.4645    
    149000   299.84363     -5.4540963      0              57.294831      2047.8113    
    150000   293.88639     -4.2496287      0              57.252614      2130.397     
    151000   294.99417     -4.6993351      0              57.034736      2092.823     
    152000   304.66442     -4.9181876      0              58.839599      2088.3438    
    153000   301.22753     -4.2701301      0              58.768409      2133.7616    
    154000   295.2066      -2.4271117      0              59.351416      2195.161     
    155000   300.67933     -4.7033622      0              58.220455      2038.5488    
    156000   296.35658     -4.6575746      0              57.361612      2159.6005    
    157000   304.74128     -4.8669601      0              58.906911      2035.8636    
    158000   294.03391     -4.0389519      0              57.494164      2133.3303    
    159000   298.68039     -3.3478987      0              59.157596      2256.2584    
    160000   298.01968     -5.3622103      0              57.005017      2060.5095    
    161000   305.66221     -5.0832066      0              58.883388      2083.3998    
    162000   303.68928     -5.7061453      0              57.84757       1985.9477    
    163000   301.5207      -3.8872145      0              59.212679      2114.4814    
    164000   287.913       -6.0905035      0              54.161677      2061.8796    
    165000   300.16606     -4.5143714      0              58.302033      2087.0614    
    166000   300.38669     -3.4838385      0              59.378737      2222.1399    
    167000   302.96128     -6.3381172      0              57.063248      2018.6889    
    168000   307.0532      -4.8238546      0              59.433836      2127.1037    
    169000   293.85353     -2.4149349      0              59.080432      2211.0049    
    170000   301.12854     -2.9753472      0              60.042478      2189.6967    
    171000   289.74452     -4.6326131      0              56.002853      2034.4727    
    172000   304.46322     -4.1050098      0              59.610669      2000.0091    
    173000   301.10114     -4.9835553      0              58.028536      2132.0411    
    174000   302.13568     -3.4596708      0              59.76892       2182.0061    
    175000   296.31181     -6.0130064      0              55.99681       2021.1525    
    176000   307.82412     -5.0535288      0              59.365494      2035.4513    
    177000   294.77325     -4.8033455      0              56.884494      2112.7287    
    178000   304.7029      -5.1851162      0              58.580723      2095.9234    
    179000   302.49093     -5.48883        0              57.814105      1994.5145    
    180000   292.90408     -4.0475655      0              57.249108      2159.3571    
    181000   296.24356     -4.8226003      0              57.172933      2062.3267    
    182000   288.24685     -6.3878984      0              53.934147      2091.7377    
    183000   301.47646     -5.3316668      0              57.758968      2137.0567    
    184000   299.26695     -4.2423543      0              58.38589       1976.0877    
    185000   300.72225     -5.4565859      0              57.476213      2111.8567    
    186000   299.21599     -3.637038       0              58.980544      2095.6011    
    187000   301.38993     -4.9903943      0              58.082131      2105.6107    
    188000   300.02695     -6.8245531      0              55.96274       2006.5886    
    189000   294.76226     -5.6320572      0              56.053483      2107.1015    
    190000   294.57071     -5.5297201      0              56.115732      2059.1565    
    191000   304.09992     -5.4899861      0              58.149665      2092.6346    
    192000   295.99703     -3.2794875      0              58.664455      2165.9506    
    193000   305.80565     -4.2167958      0              59.779817      2078.5932    
    194000   295.75862     -5.3001943      0              56.593856      2085.6545    
    195000   302.20505     -3.2118755      0              60.031232      2295.7846    
    196000   297.61226     -3.6685204      0              58.613446      2063.3048    
    197000   311.76601     -5.4037266      0              59.840224      2118.5352    
    198000   302.75098     -4.7878549      0              58.5695        2093.0764    
    199000   295.35098     -4.8590143      0              56.949728      2114.2287    
    200000   298.41578     -3.8975589      0              58.55256       2135.4922    
    201000   285.44367     -4.1323092      0              55.603108      2057.2011    
    202000   302.87306     -5.3085995      0              58.074304      2117.5289    
    203000   293.86181     -4.7364627      0              56.760637      2085.5385    
    204000   304.79351     -4.5584529      0              59.226348      2094.2257    
    205000   299.12044     -6.4106039      0              56.18698       2057.3385    
    206000   291.77685     -4.5673107      0              56.493466      1995.7954    
    207000   301.38865     -4.6802772      0              58.39198       2008.378     
    208000   302.27406     -5.1514804      0              58.10607       2128.9219    
    209000   312.16672     -4.5782594      0              60.749548      1977.0777    
    210000   298.33406     -4.7816039      0              57.651414      2116.6671    
    211000   301.59329     -6.0683403      0              57.046744      2137.0743    
    212000   313.10414     -3.5672322      0              61.956752      2106.3799    
    213000   292.11122     -5.2801461      0              55.850605      2109.8793    
    214000   297.39204     -5.2956259      0              56.940254      2158.901     
    215000   297.45837     -2.6053409      0              59.644418      2168.2247    
    216000   305.46024     -5.2746525      0              58.649677      2118.1839    
    217000   291.9119      -4.2887698      0              56.800269      2089.257     
    218000   306.30608     -3.6182113      0              60.483128      2145.0215    
    219000   296.47315     -4.7156619      0              57.327918      2033.4578    
    220000   309.00766     -4.9589146      0              59.707791      2122.0028    
    221000   295.44125     -5.3264825      0              56.501151      1969.1939    
    222000   301.50757     -5.2497767      0              57.847367      2019.8917    
    223000   307.42529     -5.3641431      0              58.971417      1957.8698    
    224000   297.06043     -4.9935761      0              57.172907      2082.3168    
    225000   296.78303     -3.189192       0              58.919239      2231.0308    
    226000   291.05522     -4.1788341      0              56.730926      2053.3583    
    227000   300.47168     -5.3807028      0              57.49966       2017.8921    
    228000   299.66603     -4.5526525      0              58.159109      2217.4532    
    229000   308.9412      -5.3013822      0              59.351414      2069.2685    
    230000   285.65569     -5.338294       0              54.441494      1981.9601    
    231000   287.05339     -4.6647779      0              55.407509      2059.4344    
    232000   300.70337     -3.047417       0              59.881432      2134.4865    
    233000   298.57346     -3.7528085      0              58.730309      2104.5584    
    234000   300.82592     -5.1091281      0              57.845367      2076.9686    
    235000   295.86863     -5.336879       0              56.580193      1973.706     
    236000   296.95153     -6.3255225      0              55.81817       2075.666     
    237000   290.42713     -3.2489987      0              57.529319      2273.3922    
    238000   310.52066     -5.8864336      0              59.0969        2062.1205    
    239000   289.02703     -5.5449718      0              54.940344      2131.9458    
    240000   300.7061      -4.7786681      0              58.150751      2174.8799    
    241000   292.75618     -4.5276033      0              56.738118      2013.8309    
    242000   296.63008     -5.0390945      0              57.037327      2100.4852    
    243000   291.9756      -5.3424112      0              55.759958      2085.0709    
    244000   295.04207     -2.3943902      0              59.349706      2155.1793    
    245000   292.19977     -4.9666692      0              56.182613      2126.8041    
    246000   297.20368     -3.3938703      0              58.80259       2159.6078    
    247000   304.9472      -4.0557536      0              59.761211      2105.2736    
    248000   306.39865     -4.9430672      0              59.177644      2105.0788    
    249000   294.65023     -4.4569467      0              57.205148      2158.7404    
    250000   304.06043     -3.9161484      0              59.715239      2185.929     
    251000   302.86143     -4.0425531      0              59.337917      2188.726     
    252000   300.00761     -6.8387571      0              55.944489      1954.0617    
    253000   295.18324     -4.8655184      0              56.908121      2120.6421    
    254000   291.88893     -4.2026437      0              56.881587      2045.8002    
    255000   298.56889     -4.9346242      0              57.547538      2027.8733    
    256000   300.75394     -3.572125       0              59.367307      2133.5161    
    257000   292.89023     -5.2422344      0              56.05154       2047.2449    
    258000   310.44871     -4.1847863      0              60.783491      2136.1379    
    259000   302.20456     -4.7153605      0              58.527645      2198.1036    
    260000   311.99886     -5.3936024      0              59.899078      2061.159     
    261000   290.94836     -2.9621273      0              57.925269      2146.786     
    262000   297.18464     -5.3521402      0              56.840335      2027.1075    
    263000   298.06976     -4.79752        0              57.580186      2099.192     
    264000   298.08677     -3.2952631      0              59.086005      2151.7464    
    265000   317.61619     -2.4740326      0              63.994199      2221.7182    
    266000   299.13955     -4.6551354      0              57.94645       2072.4073    
    267000   296.7884      -4.621194       0              57.488361      2079.9145    
    268000   292.8285      -4.888183       0              56.392673      1963.1837    
    269000   294.33119     -5.1776276      0              56.417701      1996.0888    
    270000   307.29516     -3.8317787      0              60.476549      2088.0184    
    271000   286.09285     -5.3077027      0              54.563571      2059.2691    
    272000   299.57758     -5.2921613      0              57.401091      1984.3486    
    273000   297.14337     -5.4459464      0              56.737892      2058.1815    
    274000   292.04338     -6.5818594      0              54.534695      2075.4896    
    275000   304.55561     -6.4007872      0              57.334229      2022.8808    
    276000   299.74575     -5.4517777      0              57.276666      2013.6103    
    277000   290.66748     -3.0372715      0              57.791345      2102.8727    
    278000   304.6712      -5.1276562      0              58.631548      2102.2145    
    279000   304.84343     -4.6363985      0              59.158849      2045.5472    
    280000   294.99775     -4.0928055      0              57.642015      2045.1548    
    281000   311.7465      -2.7634717      0              62.476396      2132.2926    
    282000   302.31549     -2.679335       0              60.586885      2040.9128    
    283000   302.33085     -4.0807231      0              59.188712      2091.4078    
    284000   301.13039     -4.4969888      0              58.521224      2048.4032    
    285000   303.61351     -4.7505086      0              58.787351      2080.1752    
    286000   302.51704     -7.0588361      0              56.249562      2036.5393    
    287000   297.91389     -4.3375871      0              58.007501      2168.238     
    288000   303.0304      -6.8740817      0              56.54175       2061.8904    
    289000   306.93831     -5.2377478      0              58.995899      2063.0062    
    290000   310.8107      -5.0531766      0              59.990855      2087.201     
    291000   304.66261     -4.5657765      0              59.19163       2117.3044    
    292000   305.70852     -4.4922688      0              59.484019      2104.7106    
    293000   296.56516     -4.3780125      0              57.684823      2043.2667    
    294000   297.44585     -3.5446358      0              58.702505      2142.3274    
    295000   294.66849     -3.7873742      0              57.878541      2059.7887    
    296000   300.4989      -4.3092903      0              58.576769      2128.5925    
    297000   287.00359     -4.820582       0              55.241283      2162.2363    
    298000   299.46478     -4.6377354      0              58.031909      2068.902     
    299000   305.34543     -5.8096792      0              58.090623      2061.395     
    300000   302.46556     -4.106264       0              59.191362      2070.7648    
    301000   294.56624     -4.540868       0              57.103651      1987.7316    
    302000   300.34083     -4.920259       0              57.932719      2111.9192    
    303000   302.0303      -5.0254349      0              58.181103      2037.8797    
    304000   297.84752     -3.4708629      0              58.860334      2046.2366    
    305000   297.69821     -4.2687838      0              58.031167      2139.8295    
    306000   294.3822      -4.8552207      0              56.750783      2001.4467    
    307000   295.40028     -3.6732595      0              58.1458        2021.4756    
    308000   304.05016     -4.0038734      0              59.625366      2074.6136    
    309000   300.64303     -4.0371764      0              58.879045      2015.3673    
    310000   300.37229     -3.1064383      0              59.753124      2173.8313    
    311000   306.95439     -4.1901063      0              60.046907      2068.8013    
    312000   306.03032     -2.9048315      0              61.138799      2173.3556    
    313000   293.43688     -4.7249833      0              56.68319       2116.3704    
    314000   291.51571     -4.0296961      0              56.976431      2092.6322    
    315000   299.16959     -6.4336577      0              56.174213      2085.8004    
    316000   297.69791     -4.7392524      0              57.560638      2179.7709    
    317000   288.21077     -5.8499537      0              54.464541      2101.3668    
    318000   307.58133     -3.6501045      0              60.71811       2069.5769    
    319000   304.98849     -3.6802973      0              60.145306      2124.6822    
    320000   301.63092     -5.3812569      0              57.741701      2035.9211    
    321000   294.8593      -5.5366375      0              56.16921       2133.5572    
    322000   305.54612     -4.693046       0              59.249255      2043.218     
    323000   304.55287     -3.9681708      0              59.766271      2081.8257    
    324000   305.34774     -5.3129141      0              58.587872      2152.6026    
    325000   306.50808     -3.6651143      0              60.478499      2080.4671    
    326000   300.77908     -6.1693132      0              56.77538       2039.0543    
    327000   295.98279     -5.0648087      0              56.876154      2082.0367    
    328000   304.29981     -3.5964677      0              60.085015      2135.9208    
    329000   306.28667     -5.3577001      0              58.739578      2077.3503    
    330000   307.07852     -4.3767427      0              59.886247      2140.8951    
    331000   296.85795     -4.0265059      0              58.097603      2072.4089    
    332000   311.27632     -4.3025298      0              60.838943      2179.9471    
    333000   308.27614     -4.2250079      0              60.288609      2080.7795    
    334000   298.76777     -4.7011365      0              57.822645      1953.4357    
    335000   289.87753     -5.4514977      0              55.211803      1904.5479    
    336000   294.37524     -5.0526876      0              56.551859      2004.8547    
    337000   315.72977     -4.1432179      0              61.930238      2233.2675    
    338000   300.44995     -3.9443845      0              58.931431      2080.4446    
    339000   305.37132     -4.4467228      0              59.458997      2153.1938    
    340000   296.542       -4.5713466      0              57.486642      2080.6677    
    341000   305.33749     -3.3069641      0              60.591676      2107.4897    
    342000   301.16057     -4.465651       0              58.558877      2033.5874    
    343000   297.23395     -5.8927262      0              56.31007       2080.9386    
    344000   292.46178     -6.7197761      0              54.484336      2090.6216    
    345000   299.80141     -5.0567177      0              57.683375      2061.5619    
    346000   302.56585     -4.9723743      0              58.34624       1964.5052    
    347000   319.71787     -3.7544935      0              63.153561      2206.5765    
    348000   300.77184     -4.2034667      0              58.73971       2112.6827    
    349000   303.95436     -2.8354382      0              60.773751      2204.3722    
    350000   300.17752     -3.2637848      0              59.555017      2152.068     
    351000   295.01535     -3.0712586      0              58.667246      2161.0843    
    352000   293.88426     -4.4577169      0              57.044081      2063.1612    
    353000   301.49095     -4.1728206      0              58.920846      2162.0116    
    354000   291.7271      -5.468089       0              55.582275      1980.3519    
    355000   308.95379     -2.9325694      0              61.722862      2288.8631    
    356000   286.52269     -4.1012234      0              55.860004      2087.9079    
    357000   306.18331     -3.9845017      0              60.091146      2185.6856    
    358000   304.31138     -5.4518256      0              58.232079      2073.0712    
    359000   310.64287     -4.8308195      0              60.178089      2107.9371    
    360000   295.05451     -5.2957737      0              56.450925      2084.3267    
    361000   310.34064     -4.7164042      0              60.229256      2055.183     
    362000   307.36307     -4.1519003      0              60.170638      2216.8258    
    363000   300.84032     -5.6851068      0              57.272401      1984.7827    
    364000   290.17021     -3.8528469      0              56.871704      2007.7391    
    365000   309.29216     -5.6301875      0              59.096056      2051.3437    
    366000   294.13247     -4.6112201      0              56.942522      2061.6246    
    367000   293.36737     -5.2769622      0              56.116666      2066.8574    
    368000   303.31525     -3.5134981      0              59.961945      2061.8706    
    369000   304.47094     -4.091916       0              59.62538       2145.5499    
    370000   305.05004     -3.8772057      0              59.961279      2047.0982    
    371000   294.56186     -3.3662608      0              58.277341      2080.3235    
    372000   297.12341     -4.7616795      0              57.417983      2145.9993    
    373000   304.25475     -3.3866093      0              60.285444      2146.7993    
    374000   309.70073     -4.7461349      0              60.065611      2077.9466    
    375000   293.29837     -4.5655052      0              56.813683      2014.0252    
    376000   297.99988     -4.5523478      0              57.810736      2158.5394    
    377000   290.20141     -4.6556544      0              56.075427      2239.7269    
    378000   295.98125     -4.5422415      0              57.398399      2055.1909    
    379000   304.8796      -6.6369233      0              57.165894      1967.272     
    380000   299.99587     -4.3734538      0              58.407334      2130.6319    
    381000   304.04388     -5.187488       0              58.440436      2173.2655    
    382000   301.05501     -4.3924341      0              58.610002      2174.3071    
    383000   299.56331     -4.1612893      0              58.528977      2082.2387    
    384000   304.09766     -4.722409       0              58.916769      2105.5582    
    385000   297.60909     -4.3962827      0              57.885018      2046.7523    
    386000   299.31145     -4.2425508      0              58.395006      2123.6256    
    387000   301.13043     -3.6772408      0              59.34098       2023.849     
    388000   304.38106     -4.5517135      0              59.146773      2197.6201    
    389000   292.06821     -4.539848       0              56.581901      2123.1665    
    390000   303.67389     -4.4716202      0              59.078876      2152.6627    
    391000   297.91988     -4.0604593      0              58.285881      2123.8848    
    392000   299.54385     -4.6437793      0              58.042414      2057.588     
    393000   298.77304     -6.6181338      0              55.90675       2032.5182    
    394000   298.71728     -5.2648851      0              57.24833       2081.8234    
    395000   301.60686     -5.1753178      0              57.942606      2152.7528    
    396000   294.47        -4.4813974      0              57.142979      2096.0147    
    397000   290.5945      -4.7676529      0              56.04569       2037.4182    
    398000   296.77068     -4.8673489      0              57.238498      2063.416     
    399000   296.09239     -2.3230649      0              59.640834      2224.7798    
    400000   306.19292     -3.6717799      0              60.405877      2185.0345    
    401000   305.30936     -3.8786461      0              60.014107      2113.0996    
    402000   312.79846     -4.1958925      0              61.264121      2192.0519    
    403000   296.60268     -5.0354568      0              57.035232      2053.1971    
    404000   294.82927     -3.517231       0              58.182332      2109.9248    
    405000   292.48339     -6.3683022      0              54.840334      1939.2179    
    406000   302.39893     -4.3912216      0              58.89246       2123.2127    
    407000   305.34896     -4.8948718      0              59.006169      2184.5091    
    408000   301.48536     -4.0581561      0              59.034342      2155.769     
    409000   290.76654     -6.4799722      0              54.369374      2006.2211    
    410000   304.60757     -4.0501167      0              59.695771      2069.4691    
    411000   297.07851     -3.3272547      0              58.843011      2124.5016    
    412000   301.17127     -4.8681243      0              58.158642      2043.7388    
    413000   297.14347     -5.028551       0              57.15531       2048.4731    
    414000   287.67558     -3.7158782      0              56.486616      2073.5544    
    415000   307.33367     -4.8316192      0              59.484766      2167.6231    
    416000   295.86014     -6.3119305      0              55.603365      1994.6384    
    417000   293.84771     -3.9593731      0              57.534777      2103.9617    
    418000   301.19108     -4.0703237      0              58.960588      2118.9619    
    419000   300.74808     -5.304272       0              57.633932      2140.4136    
    420000   304.00643     -5.144121       0              58.475966      1947.7692    
    421000   304.89918     -4.0663843      0              59.740531      2057.5516    
    422000   294.74839     -2.2226685      0              59.459968      2134.4806    
    423000   293.08139     -5.1141452      0              56.219635      2091.3878    
    424000   292.24772     -3.443049       0              57.716268      2080.1564    
    425000   309.09532     -3.8628173      0              60.822232      2025.608     
    426000   297.67389     -4.2399745      0              58.054888      2136.8       
    427000   296.18388     -4.9286868      0              57.054359      2004.1338    
    428000   303.71414     -4.2492939      0              59.309624      2131.8829    
    429000   303.15457     -4.2785163      0              59.163301      2070.4458    
    430000   297.23564     -5.0299664      0              57.173183      2002.8051    
    431000   295.82312     -4.3281188      0              57.57943       2072.6665    
    432000   311.15431     -4.300215       0              60.815725      2105.8048    
    433000   305.2201      -4.2299895      0              59.644084      2116.7473    
    434000   298.23925     -4.9479117      0              57.465264      2136.8566    
    435000   301.0969      -4.1578977      0              58.853305      2101.4109    
    436000   307.21763     -5.3072802      0              58.984821      2155.7105    
    437000   299.85061     -4.1088384      0              58.641552      2117.0912    
    438000   298.01729     -5.1400661      0              57.226659      2077.0747    
    439000   299.70601     -4.6144779      0              58.105651      2094.9698    
    440000   286.82378     -5.9534626      0              54.070773      1933.7284    
    441000   307.20344     -4.0210247      0              60.268108      2087.1089    
    442000   304.54578     -4.9477         0              58.785257      2075.6778    
    443000   299.20682     -3.5725366      0              59.043125      2105.7527    
    444000   304.72697     -3.6267941      0              60.144081      2046.1643    
    445000   300.34018     -4.5475665      0              58.305277      2070.8554    
    446000   300.76927     -6.3481708      0              56.594469      2027.6916    
    447000   299.32895     -4.0614738      0              58.579746      2076.5622    
    448000   305.21129     -4.1513189      0              59.720912      2152.4552    
    449000   297.48469     -4.5746173      0              57.68065       2109.1927    
    450000   301.97835     -3.9876381      0              59.208028      2069.9491    
    451000   308.2648      -4.1877576      0              60.323489      2048.2043    
    452000   310.40211     -5.9254147      0              59.033111      2134.1159    
    453000   300.66393     -5.2694409      0              57.651154      2145.744     
    454000   297.32297     -5.7278804      0              56.493545      2000.0566    
    455000   301.68347     -5.8211891      0              57.312767      2030.1284    
    456000   302.50672     -4.4100083      0              58.896231      2139.2782    
    457000   306.17279     -3.7794149      0              60.294031      2153.9141    
    458000   298.77632     -3.5119717      0              59.013598      2066.2415    
    459000   282.27491     -3.8478179      0              55.224466      2102.6571    
    460000   309.9651      -6.1029242      0              58.764146      2045.9176    
    461000   292.94164     -5.054696       0              56.249839      2167.2257    
    462000   300.12978     -5.3172541      0              57.491558      1982.733     
    463000   301.99475     -3.2479505      0              59.951147      2229.3651    
    464000   300.20193     -4.9098196      0              57.914092      2107.5653    
    465000   307.53336     -4.7548606      0              59.603314      2123.0808    
    466000   294.34356     -4.8523842      0              56.745533      2083.3897    
    467000   296.08734     -4.7915821      0              57.171259      2067.6408    
    468000   287.32245     -4.4629512      0              55.665644      2053.8675    
    469000   303.12929     -4.4633399      0              58.973185      2030.3002    
    470000   305.64715     -6.9133988      0              57.050046      2083.887     
    471000   295.3353      -5.295244       0              56.510216      2021.3831    
    472000   295.7764      -5.3487655      0              56.549006      2036.8738    
    473000   319.00352     -4.4140555      0              62.344504      2049.4078    
    474000   311.48361     -5.396819       0              59.788033      2017.6881    
    475000   293.99018     -3.352892       0              58.171071      2126.3026    
    476000   296.14725     -5.3576443      0              56.617735      2033.7034    
    477000   299.06314     -4.4444599      0              58.141133      2109.7314    
    478000   297.64703     -5.3740958      0              56.915145      2152.053     
    479000   297.48912     -3.321356       0              58.934839      2139.3696    
    480000   301.18518     -4.6518817      0              58.377796      2170.85      
    481000   293.75366     -2.9145936      0              58.559874      2156.9257    
    482000   296.04868     -4.8291055      0              57.125645      2003.1203    
    483000   289.14698     -4.7990354      0              55.711382      2031.9028    
    484000   300.03071     -5.671331       0              57.116749      2099.2185    
    485000   298.95219     -5.3158965      0              57.246477      2097.1898    
    486000   303.32515     -4.1336147      0              59.3439        2097.751     
    487000   293.09648     -5.3162579      0              56.020681      2079.6718    
    488000   300.5024      -4.0831094      0              58.803682      2043.7306    
    489000   304.4841      -5.0107062      0              58.709343      2082.8082    
    490000   297.33062     -4.8300982      0              57.392926      2119.0523    
    491000   307.50294     -3.9652899      0              60.386519      2120.8139    
    492000   297.68804     -4.793513       0              57.50431       2028.8388    
    493000   298.91793     -3.5980403      0              58.957166      2213.3314    
    494000   305.72002     -5.6381243      0              58.34057       2101.921     
    495000   296.67691     -5.4223532      0              56.66387       2073.1734    
    496000   297.08022     -3.4817925      0              58.688832      2159.9905    
    497000   291.50488     -4.4572173      0              56.546643      2083.1678    
    498000   303.00307     -4.1922774      0              59.217834      2030.2472    
    499000   297.34645     -6.0481834      0              56.178155      2034.8273    
    500000   299.61291     -3.9195614      0              58.781083      2239.7295    
    501000   299.15545     -5.4228175      0              57.182094      1982.8802    
    502000   297.25187     -3.0994744      0              59.10707       2101.9165    
    503000   299.45152     -3.4274125      0              59.239458      2096.4502    
    504000   299.50279     -5.6116969      0              57.065903      2083.023     
    505000   292.53255     -5.0012235      0              56.217699      2062.2749    
    506000   298.06218     -4.8723956      0              57.503726      1982.4951    
    507000   303.15404     -4.7592961      0              58.682409      2143.8088    
    508000   293.41667     -3.1701312      0              58.233814      2143.9814    
    509000   300.437       -5.2535493      0              57.619556      2014.9736    
    510000   307.65493     -4.5844742      0              59.799142      1987.3647    
    511000   296.89973     -4.0201376      0              58.112714      2087.0918    
    512000   304.1631      -5.2785302      0              58.374343      2110.6446    
    513000   300.98137     -4.6143997      0              58.372627      2210.7442    
    514000   299.98011     -4.4973324      0              58.280157      2025.8635    
    515000   292.14959     -6.2418799      0              54.896901      2072.4431    
    516000   303.86127     -4.288485       0              59.301224      2020.6951    
    517000   308.47108     -3.7199649      0              60.834448      2102.9513    
    518000   303.08623     -3.4063745      0              60.021139      2098.7167    
    519000   300.18956     -1.8878412      0              60.93348       2237.8598    
    520000   321.45013     -5.8225342      0              61.448034      2014.932     
    521000   300.57378     -4.074527       0              58.827202      2151.9324    
    522000   295.84193     -5.5720667      0              56.339416      2056.9584    
    523000   293.28359     -5.6654956      0              55.710599      2029.572     
    524000   304.78201     -4.7606358      0              59.021759      2025.2962    
    525000   309.1355      -3.876201       0              60.817257      2237.8042    
    526000   295.3135      -6.094502       0              55.706397      2086.7785    
    527000   300.01826     -5.5540164      0              57.231457      2025.63      
    528000   287.72588     -4.8844895      0              55.328532      2048.9276    
    529000   302.33917     -4.1521954      0              59.118981      2136.7589    
    530000   300.08639     -5.95944        0              56.840291      1952.5851    
    531000   305.21246     -4.1846321      0              59.687844      2086.39      
    532000   306.96097     -4.6578293      0              59.580561      1973.398     
    533000   299.95657     -3.9042298      0              58.868333      2088.8886    
    534000   294.56065     -2.2929727      0              59.350376      2137.6534    
    535000   307.09865     -5.2025763      0              59.064627      2101.7442    
    536000   299.50703     -4.3096886      0              58.3688        2122.9777    
    537000   303.71831     -5.215708       0              58.344083      2044.0717    
    538000   298.35331     -4.4901928      0              57.946854      2086.2038    
    539000   296.28146     -5.8158104      0              56.187656      2044.6074    
    540000   290.65571     -4.97266        0              55.853493      2104.353     
    541000   301.62049     -4.9037221      0              58.217054      1982.6919    
    542000   292.54317     -3.9051021      0              57.316043      2130.2292    
    543000   300.69722     -2.2212739      0              60.706288      2248.6639    
    544000   304.32285     -2.5980379      0              61.088267      2194.5038    
    545000   301.57692     -4.6188992      0              58.492759      2144.0003    
    546000   298.36443     -5.4950576      0              56.944315      2048.2524    
    547000   302.8907      -3.6615903      0              59.725005      2131.4188    
    548000   299.00432     -5.5584382      0              57.014846      2095.7646    
    549000   294.98723     -4.5292662      0              57.203352      2078.0692    
    550000   297.30331     -3.3669794      0              58.850331      2192.0721    
    551000   299.98079     -3.8004953      0              58.977136      2143.628     
    552000   302.63461     -4.5543404      0              58.778662      2074.9025    
    553000   291.39704     -3.5161654      0              57.465127      2215.7563    
    554000   305.18201     -5.5711471      0              58.294956      2139.0698    
    555000   295.23247     -4.8102242      0              56.973717      2076.6805    
    556000   306.59153     -4.3988477      0              59.762228      2096.7825    
    557000   302.75514     -4.3125279      0              59.045699      2225.2953    
    558000   308.56859     -4.8975156      0              59.677304      2122.5588    
    559000   290.31222     -3.9500671      0              56.804204      2039.5804    
    560000   302.897       -4.5686146      0              58.8193        2158.7564    
    561000   304.55329     -4.5374861      0              59.197044      2184.1167    
    562000   318.56167     -5.4878126      0              61.178281      2063.709     
    563000   290.92314     -6.5279962      0              54.354122      1989.3177    
    564000   301.11841     -3.3275595      0              59.688146      2173.8363    
    565000   294.97636     -4.2635438      0              57.4668        2082.8428    
    566000   295.02082     -4.2564611      0              57.483187      2065.0007    
    567000   305.51486     -5.1672775      0              58.768481      2063.1374    
    568000   303.3195      -3.9798298      0              59.496501      2209.4304    
    569000   309.69924     -4.6360347      0              60.1754        2076.405     
    570000   298.21336     -4.4348834      0              57.972875      2138.9918    
    571000   294.92447     -3.6221535      0              58.097332      2083.5497    
    572000   290.28509     -4.3269794      0              56.421613      2071.5258    
    573000   310.27891     -2.9105464      0              62.022197      2282.1825    
    574000   299.94912     -5.6478638      0              57.123141      1983.0779    
    575000   314.4078      -5.2866107      0              60.510194      2044.1641    
    576000   304.05239     -4.4399983      0              59.189706      2047.4143    
    577000   303.75856     -6.4180066      0              57.150208      2051.0182    
    578000   296.36733     -4.7790204      0              57.242415      2037.6261    
    579000   298.94371     -3.8812778      0              58.679323      2120.3279    
    580000   300.50904     -4.5284562      0              58.359725      2042.766     
    581000   314.6019      -5.8402217      0              59.997202      2166.7098    
    582000   291.78492     -5.6704576      0              55.392008      2041.3       
    583000   295.80274     -4.5445931      0              57.35869       2144.312     
    584000   294.16558     -5.5915646      0              55.969107      2049.277     
    585000   307.67051     -4.877008       0              59.509869      2056.346     
    586000   304.92047     -2.7399566      0              61.071414      2212.9326    
    587000   297.70435     -3.6330668      0              58.66817       2127.28      
    588000   307.46077     -4.3713711      0              59.971613      2120.1025    
    589000   298.98643     -5.631804       0              56.937736      2020.4258    
    590000   305.3627      -3.805262       0              60.098655      2121.9233    
    591000   309.50022     -2.6062944      0              62.16349       2167.223     
    592000   302.33476     -4.975018       0              58.295235      2133.9328    
    593000   292.67588     -3.3674428      0              57.881475      2151.4134    
    594000   306.72125     -4.92918        0              59.259044      2072.9655    
    595000   294.73136     -5.4016494      0              56.277423      2110.0972    
    596000   302.6453      -4.8359581      0              58.499283      2093.1315    
    597000   307.40328     -5.6208642      0              58.710089      2067.465     
    598000   300.9137      -5.5224197      0              57.450445      2066.85      
    599000   303.67936     -5.1937376      0              58.357902      2029.6345    
    600000   298.22333     -3.7953988      0              58.614446      2108.9878    
    601000   302.42045     -4.1528136      0              59.135371      2164.4365    
    602000   298.945       -4.3622173      0              58.198653      2076.1125    
    603000   312.278       -4.3808191      0              60.970278      2062.3434    
    604000   291.83474     -5.2065486      0              55.866341      2035.6502    
    605000   297.73529     -4.8561144      0              57.451596      2073.3502    
    606000   297.48876     -5.2067821      0              57.049337      2057.9557    
    607000   293.73161     -3.9758561      0              57.493996      2092.9883    
    608000   300.32794     -4.6665434      0              58.183739      2100.6238    
    609000   302.48946     -2.851217       0              60.45141       2068.917     
    610000   296.84479     -3.7987708      0              58.322585      2045.2412    
    611000   301.92106     -3.1232915      0              60.060386      2114.9709    
    612000   294.37399     -4.6237296      0              56.980556      2112.1256    
    613000   302.01565     -5.3945573      0              57.808916      2093.8915    
    614000   300.69904     -5.4684889      0              57.459452      2093.1775    
    615000   297.14432     -5.5281154      0              56.655924      2102.3989    
    616000   298.03641     -4.9189741      0              57.451754      2054.1995    
    617000   285.95052     -4.684973       0              55.156515      2095.121     
    618000   294.58805     -5.1467603      0              56.502321      2100.6413    
    619000   293.53535     -4.9112873      0              56.517494      2074.5805    
    620000   296.16966     -6.4695854      0              55.510483      2092.2714    
    621000   297.58402     -3.7603992      0              58.515656      2124.8562    
    622000   304.6495      -6.8760965      0              56.878566      2137.3378    
    623000   293.93024     -4.6187488      0              56.892671      2113.4676    
    624000   298.48912     -4.7504972      0              57.714971      2204.3802    
    625000   297.01902     -5.5687632      0              56.589053      2005.0255    
    626000   303.78743     -4.6154196      0              58.958836      2027.1384    
    627000   302.73201     -5.0068269      0              58.346559      2068.7817    
    628000   306.13854     -3.9460477      0              60.120231      2098.4829    
    629000   302.80234     -5.9109774      0              57.457126      2059.9388    
    630000   304.12451     -3.3432987      0              60.3015        2198.3177    
    631000   302.72395     -4.0325933      0              59.319106      2070.2775    
    632000   304.41397     -4.9958886      0              58.709485      2206.5515    
    633000   305.03248     -5.2185586      0              58.616251      2092.2726    
    634000   302.41992     -4.1819545      0              59.106121      2230.4184    
    635000   306.53949     -4.0725772      0              60.077608      2223.5305    
    636000   301.53446     -5.313684       0              57.789089      2036.6643    
    637000   297.44789     -2.8842818      0              59.363284      2126.3983    
    638000   289.5938      -5.520063       0              55.083862      2094.7384    
    639000   301.55343     -4.9460609      0              58.160681      2108.6885    
    640000   308.31378     -4.1190375      0              60.402458      2173.9566    
    641000   299.75251     -4.9289681      0              57.800892      2092.9602    
    642000   295.05683     -4.7604836      0              56.986701      2048.3841    
    643000   292.06078     -4.967289       0              56.152905      1968.9613    
    644000   307.01752     -3.9480948      0              60.302129      2147.7597    
    645000   297.70414     -3.9548977      0              58.346295      2167.239     
    646000   297.33501     -4.4560502      0              57.767895      2043.7148    
    647000   310.88726     -6.5749762      0              58.485077      2200.5205    
    648000   294.95917     -3.3669094      0              58.359838      2162.0157    
    649000   301.51032     -5.7336448      0              57.364075      2006.9466    
    650000   306.05978     -5.9009561      0              58.148841      2017.3783    
    651000   294.75552     -5.2822443      0              56.401885      2101.0396    
    652000   293.6019      -6.2500503      0              55.192658      2053.4457    
    653000   308.28537     -5.2774437      0              59.238106      2017.1415    
    654000   303.86674     -5.2903874      0              58.300466      1956.729     
    655000   309.60917     -4.6748518      0              60.117732      2006.7662    
    656000   300.60297     -5.1215446      0              57.786293      2032.5672    
    657000   292.99473     -3.0995899      0              58.216054      2155.516     
    658000   301.9726      -4.6075174      0              58.586946      2074.8617    
    659000   304.46555     -5.1470893      0              58.569078      2105.974     
    660000   310.0621      -4.5484254      0              60.338945      2130.7205    
    661000   299.93703     -3.5101926      0              59.258282      2113.2202    
    662000   295.11505     -4.8065723      0              56.952796      2040.5656    
    663000   303.42506     -5.5772584      0              57.921164      2068.8954    
    664000   296.56237     -5.0715148      0              56.990737      2141.1576    
    665000   287.4715      -3.1624026      0              56.997384      2089.2674    
    666000   306.48842     -4.7583982      0              59.3811        2018.8899    
    667000   313.49841     -6.0236602      0              59.582834      2009.9017    
    668000   295.35522     -5.514194       0              56.295435      2025.304     
    669000   296.1101      -5.5945675      0              56.373036      2153.462     
    670000   300.68471     -5.0438849      0              57.881059      2130.5892    
    671000   297.43732     -3.3706005      0              58.874754      2043.226     
    672000   294.23879     -3.5163743      0              58.059618      2155.1195    
    673000   295.69186     -4.1243542      0              57.755725      1961.6998    
    674000   297.31928     -4.7264115      0              57.49424       2139.6706    
    675000   299.03413     -4.0879448      0              58.491577      2109.7588    
    676000   304.12492     -4.7983199      0              58.846564      2134.1496    
    677000   312.10672     -4.8484251      0              60.466827      2093.235     
    678000   298.92454     -4.5474519      0              58.009136      2111.855     
    679000   296.71861     -4.1052916      0              57.989658      2089.0439    
    680000   307.59015     -5.1328233      0              59.237237      2121.5739    
    681000   295.90821     -4.3516633      0              57.573691      1996.0007    
    682000   295.97616     -4.3320844      0              57.60749       2115.4892    
    683000   303.60695     -5.8005574      0              57.73593       2093.994     
    684000   302.1874      -5.6740143      0              57.565399      2091.914     
    685000   292.9223      -4.5878258      0              56.712662      2099.8216    
    686000   292.15837     -4.480481       0              56.660137      2036.3291    
    687000   296.55691     -6.0796534      0              55.981456      2052.2079    
    688000   296.49006     -3.8249443      0              58.222176      2083.2103    
    689000   293.71564     -4.7374183      0              56.729092      1986.8237    
    690000   305.40896     -5.2224487      0              58.691148      2030.8225    
    691000   298.80533     -4.3333646      0              58.198276      2182.0233    
    692000   293.77509     -3.6857348      0              57.793218      2069.4192    
    693000   298.57765     -4.3065742      0              58.17742       2100.94      
    694000   292.49134     -4.6061323      0              56.604167      2010.3911    
    695000   306.03073     -3.7329152      0              60.310801      2209.3156    
    696000   310.48744     -3.6409895      0              61.335393      1999.1765    
    697000   289.90185     -4.9818248      0              55.686565      1993.7207    
    698000   302.07273     -2.8454519      0              60.369965      2133.171     
    699000   289.86338     -5.5248968      0              55.135444      2073.3092    
    700000   306.01182     -6.0032765      0              58.036482      2056.0073    
    701000   299.45129     -4.2625936      0              58.404229      2095.5201    
    702000   296.5318      -2.8145054      0              59.241349      2194.3505    
    703000   304.45642     -3.7930345      0              59.921223      2102.1266    
    704000   298.05962     -6.1098065      0              56.265778      2036.811     
    705000   294.39969     -3.5520397      0              58.057623      2122.3809    
    706000   286.46588     -4.9529636      0              54.996375      2009.9264    
    707000   303.14362     -3.301124       0              60.1384        2087.5706    
    708000   296.07552     -6.4787474      0              55.48162       2029.9117    
    709000   302.0445      -4.7072144      0              58.502294      1999.8208    
    710000   303.63523     -3.9532919      0              59.589113      2086.7217    
    711000   298.84865     -4.5025479      0              58.038159      2125.2478    
    712000   293.9397      -1.8612563      0              59.652144      2244.2633    
    713000   306.84587     -5.8868968      0              58.327406      1973.8747    
    714000   304.46461     -4.2865252      0              59.429446      2078.1954    
    715000   303.22354     -5.7815752      0              57.674675      2039.5695    
    716000   295.44919     -3.9706818      0              57.858613      2074.7288    
    717000   301.49457     -5.132143       0              57.962282      2050.6472    
    718000   289.33345     -3.9091032      0              56.640338      1973.3249    
    719000   300.63209     -3.8789523      0              59.034978      2210.3407    
    720000   298.64544     -5.3571319      0              57.141048      2067.9119    
    721000   298.90089     -6.2886549      0              56.262984      1987.6628    
    722000   294.20806     -5.2207248      0              56.348836      2032.6867    
    723000   310.77863     -4.7414983      0              60.295821      2138.7237    
    724000   309.61305     -3.5879429      0              61.205453      2075.2484    
    725000   314.60192     -3.9224779      0              61.914951      2096.7725    
    726000   298.91525     -3.5120866      0              59.042558      2092.2059    
    727000   289.30439     -3.7321767      0              56.811182      1985.4749    
    728000   303.84552     -5.1420247      0              58.444388      2098.2938    
    729000   305.72643     -6.0150901      0              57.964945      2135.4628    
    730000   299.13753     -5.4304812      0              57.17068       2048.1814    
    731000   297.32967     -4.1530202      0              58.069806      2023.7574    
    732000   288.15912     -3.4498648      0              56.853821      2092.2122    
    733000   305.61972     -4.0081285      0              59.949576      2139.1615    
    734000   282.60212     -4.5505559      0              54.590205      2024.62      
    735000   303.56707     -5.025565       0              58.502575      2170.696     
    736000   290.44585     -4.6237032      0              56.158532      2023.4172    
    737000   294.29157     -3.5689416      0              58.018095      2153.5487    
    738000   302.38927     -4.0681415      0              59.213518      2172.5768    
    739000   290.56354     -5.3898048      0              55.41706       1967.5048    
    740000   305.94853     -4.3575881      0              59.668927      2211.4751    
    741000   304.05859     -5.9342443      0              57.696757      2079.6229    
    742000   296.76083     -4.1784786      0              57.925306      2003.9961    
    743000   312.19854     -4.129157       0              61.20531       2212.6689    
    744000   299.80133     -5.4342815      0              57.305795      2040.9962    
    745000   300.8706      -5.2749962      0              57.688849      2075.2752    
    746000   298.67783     -4.4209353      0              58.084024      2103.9165    
    747000   301.1041      -2.4544575      0              60.558252      2199.3268    
    748000   301.84082     -4.5473464      0              58.619538      2175.229     
    749000   304.93601     -4.782296       0              59.032325      2122.2887    
    750000   303.28123     -4.3951932      0              59.073129      2166.31      
    751000   301.35763     -5.0348972      0              58.030869      1979.1907    
    752000   308.99092     -4.4721662      0              60.191035      2082.5616    
    753000   298.74511     -5.8987284      0              56.62031       2155.0372    
    754000   292.5894      -4.4508032      0              56.780016      2060.035     
    755000   306.38777     -4.672104       0              59.446331      2067.3669    
    756000   301.10225     -4.3523613      0              58.659961      2057.0074    
    757000   312.72123     -5.5720145      0              59.871838      2090.4371    
    758000   300.50917     -5.6145032      0              57.273704      2102.9579    
    759000   301.06596     -5.1099314      0              57.894796      2016.8076    
    760000   294.71193     -4.3964065      0              57.2786        2107.5523    
    761000   298.31391     -4.262055       0              58.166745      2186.6322    
    762000   309.07808     -5.0152159      0              59.666225      2025.0331    
    763000   296.83235     -4.5594884      0              57.559263      2163.7055    
    764000   297.64905     -4.2438415      0              58.045823      2216.8103    
    765000   299.98727     -3.8270652      0              58.951923      2025.4199    
    766000   297.27579     -3.7145755      0              58.496976      2141.6039    
    767000   288.28787     -5.673911       0              54.656718      2021.1066    
    768000   293.07391     -4.2017277      0              57.130488      2022.9444    
    769000   297.71946     -3.4312239      0              58.873176      2125.9709    
    770000   305.37508     -5.0455247      0              58.860983      2050.8207    
    771000   298.03202     -6.0019635      0              56.367846      2009.2031    
    772000   298.20748     -3.5062115      0              58.900317      2196.0698    
    773000   306.21233     -2.6749925      0              61.406728      2203.5886    
    774000   304.63713     -4.0940343      0              59.65804       2028.6666    
    775000   304.81551     -5.9955701      0              57.793834      1992.5623    
    776000   296.03947     -5.1134863      0              56.839337      2104.9925    
    777000   304.29493     -4.0708584      0              59.609603      2065.5819    
    778000   307.07467     -4.0383815      0              60.223801      2140.0936    
    779000   300.0644      -6.7689378      0              56.026191      2064.5914    
    780000   307.52235     -4.9084874      0              59.447383      2075.2234    
    781000   301.63209     -4.4831442      0              58.640059      2140.9068    
    782000   301.68255     -4.1542032      0              58.979561      2081.7327    
    783000   299.22337     -4.6433638      0              57.975761      2100.2868    
    784000   300.68699     -3.7204175      0              59.205003      2084.6703    
    785000   306.05899     -4.0101268      0              60.039503      2085.5768    
    786000   292.1305      -3.2212191      0              57.913566      2052.8792    
    787000   305.97992     -5.3962471      0              58.636836      2101.0748    
    788000   296.87672     -6.0319479      0              56.09609       1954.898     
    789000   296.00168     -5.7152961      0              56.22962       1973.7594    
    790000   297.89123     -4.5199462      0              57.820399      2135.0021    
    791000   291.73371     -6.1056272      0              54.946122      2155.249     
    792000   297.21115     -4.3052267      0              57.892797      2086.4311    
    793000   307.34174     -3.8259883      0              60.492086      2089.0276    
    794000   304.10656     -4.818208       0              58.822833      2200.8914    
    795000   307.45989     -5.7597931      0              58.583007      1959.4772    
    796000   306.32146     -2.8379901      0              61.266569      2153.908     
    797000   301.67045     -5.8676798      0              57.26355       2045.0486    
    798000   297.01011     -5.1524649      0              57.003487      2128.2693    
    799000   300.67863     -2.9511897      0              59.972481      2085.2985    
    800000   292.86557     -4.0812535      0              57.207362      2096.1343    
    801000   305.64163     -3.5272439      0              60.435045      2155.544     
    802000   298.28472     -3.3772525      0              59.04544       2172.3514    
    803000   303.45139     -6.3148724      0              57.18906       1927.3702    
    804000   310.81417     -5.3018286      0              59.742928      2090.2482    
    805000   299.24592     -5.5008718      0              57.122974      1969.103     
    806000   297.80766     -4.0264307      0              58.296426      2091.7873    
    807000   300.9495      -4.2057828      0              58.774573      2043.0193    
    808000   297.59384     -3.2380973      0              59.040013      2106.3833    
    809000   296.49384     -6.1044112      0              55.943499      1972.4772    
    810000   300.2416      -4.172787       0              58.659425      2148.1666    
    811000   308.11738     -3.0766851      0              61.403709      2151.974     
    812000   299.52231     -5.577749       0              57.103936      2111.1453    
    813000   299.33867     -5.8828433      0              56.760411      2012.9969    
    814000   294.44711     -3.2427813      0              58.376806      2126.2214    
    815000   301.42955     -5.7301735      0              57.350645      2063.4766    
    816000   296.79998     -5.2469602      0              56.865016      2083.0709    
    817000   289.42981     -4.92949        0              55.640116      2022.7877    
    818000   295.81731     -3.3819934      0              58.524338      2173.0115    
    819000   293.47198     -5.5394914      0              55.876029      2018.8975    
    820000   301.73548     -5.5991734      0              57.545667      2038.8812    
    821000   298.61476     -5.0049839      0              57.486777      2090.4037    
    822000   301.06282     -3.0301041      0              59.973968      2176.8527    
    823000   305.58382     -5.4395254      0              58.510665      2063.6608    
    824000   294.4012      -5.7240149      0              55.885965      2089.4323    
    825000   298.563       -3.9520298      0              58.528899      2086.0508    
    826000   304.09811     -5.5974906      0              58.041782      2068.5559    
    827000   295.84239     -5.0937053      0              56.817875      2040.9991    
    828000   308.14452     -5.1057208      0              59.380352      2066.7181    
    829000   306.07968     -3.1959864      0              60.857973      2198.0346    
    830000   294.33765     -5.3588239      0              56.237855      2049.8224    
    831000   315.36722     -5.4944537      0              60.50313       2007.0848    
    832000   315.00195     -4.3125893      0              61.608554      2101.4744    
    833000   296.06012     -5.7384081      0              56.218737      2021.4532    
    834000   299.56166     -4.6029005      0              58.08702       2117.2937    
    835000   302.70189     -4.1640366      0              59.183047      2018.263     
    836000   302.83433     -4.8134636      0              58.561335      2179.1231    
    837000   294.2721      -4.5390009      0              57.043962      2104.2319    
    838000   285.02937     -3.6563813      0              55.992334      2154.7943    
    839000   296.38472     -3.758976       0              58.266099      2123.1223    
    840000   309.63887     -3.8903862      0              60.908415      2087.465     
    841000   292.61343     -4.0626534      0              57.173195      2113.9855    
    842000   304.16167     -4.5766187      0              59.075956      2073.4747    
    843000   298.30825     -3.0146249      0              59.41299       2096.5258    
    844000   287.48148     -3.7585715      0              56.403303      2072.3448    
    845000   302.71198     -4.0707774      0              59.278417      2122.8888    
    846000   297.10789     -3.6160502      0              58.560364      2072.4813    
    847000   285.36755     -5.9115358      0              53.807952      2048.3791    
    848000   300.45736     -3.8712298      0              59.006135      2102.9369    
    849000   306.20171     -4.9991629      0              59.080335      2062.3139    
    850000   309.10628     -5.5156218      0              59.171722      2096.9787    
    851000   303.10137     -5.0775134      0              58.35317       2066.384     
    852000   302.28167     -3.7587574      0              59.500386      2193.0356    
    853000   300.09753     -5.4522849      0              57.349779      2111.3881    
    854000   305.95982     -4.1488915      0              59.879986      2191.3024    
    855000   303.23351     -4.571096       0              58.887239      2002.4503    
    856000   299.9344      -3.7604494      0              59.007475      2163.3899    
    857000   299.28238     -6.4410685      0              56.190407      1986.1774    
    858000   304.63158     -4.6104791      0              59.140434      2020.538     
    859000   297.93847     -5.5434677      0              56.806765      2012.8837    
    860000   297.8586      -3.54154        0              58.791977      2222.0893    
    861000   303.09186     -5.9529624      0              57.475729      2042.5344    
    862000   306.63072     -6.2342553      0              57.935023      2025.5727    
    863000   296.72963     -4.2360161      0              57.86124       2044.6822    
    864000   314.37279     -4.6475438      0              61.141934      2048.2182    
    865000   301.12409     -4.4269091      0              58.589984      2121.642     
    866000   308.51887     -4.863162       0              59.701254      2118.0576    
    867000   303.94081     -1.5409545      0              62.0654        2194.4187    
    868000   301.364       -5.1952224      0              57.871878      2067.2525    
    869000   301.59795     -5.573686       0              57.542373      2091.4584    
    870000   299.30113     -4.9896371      0              57.645762      2046.0729    
    871000   305.73696     -4.2002097      0              59.782028      2063.7082    
    872000   289.07725     -3.5540985      0              56.941726      2114.6751    
    873000   295.02395     -4.1943247      0              57.545979      2003.0366    
    874000   293.73284     -5.1204078      0              56.349702      2072.3362    
    875000   295.04327     -5.0545168      0              56.68983       2184.4903    
    876000   307.32925     -6.255532       0              58.059928      2048.1131    
    877000   299.85462     -4.9440599      0              57.807169      2061.9497    
    878000   299.86115     -2.9314602      0              59.821134      2093.6907    
    879000   304.30653     -4.3428162      0              59.340074      2247.0429    
    880000   297.84418     -4.978822       0              57.351677      2199.4026    
    881000   304.74304     -5.1503402      0              58.623899      2053.3542    
    882000   300.34414     -4.1542725      0              58.699399      2186.7316    
    883000   299.97424     -3.979018       0              58.797244      2196.5873    
    884000   293.95485     -3.1680882      0              58.348483      2172.6984    
    885000   301.69726     -4.5675688      0              58.569273      2134.2786    
    886000   297.52671     -5.6245712      0              56.639491      1997.1882    
    887000   293.61369     -6.2342686      0              55.210907      1935.0088    
    888000   293.81022     -6.2792332      0              55.207071      2052.6827    
    889000   305.10968     -4.7482261      0              59.102739      2089.8966    
    890000   297.7566      -4.1807578      0              58.131414      2051.9489    
    891000   288.3573      -5.547652       0              54.797507      2050.2734    
    892000   310.55961     -4.1019582      0              60.889526      2156.3771    
    893000   317.16605     -4.6286489      0              61.745379      2115.9477    
    894000   298.98734     -3.8573028      0              58.712428      2097.8232    
    895000   293.65642     -5.3823926      0              56.071725      1999.3092    
    896000   309.58443     -5.3665716      0              59.420836      2104.9949    
    897000   298.90026     -6.1021105      0              56.449397      2078.3715    
    898000   296.65051     -4.628627       0              57.452071      2001.8472    
    899000   298.70173     -5.4876711      0              57.02229       2031.2471    
    900000   301.09197     -4.8231109      0              58.18706       2116.8076    
    901000   289.72148     -2.152554       0              58.478091      2203.7724    
    902000   305.32173     -5.1331852      0              58.762158      2006.9331    
    903000   309.44135     -5.6504967      0              59.106967      2064.2388    
    904000   295.84278     -5.3465767      0              56.565086      2101.4025    
    905000   287.57785     -5.0961523      0              55.085889      2082.0086    
    906000   305.33049     -4.2093411      0              59.687835      2160.1313    
    907000   294.78988     -3.1104917      0              58.580827      2154.3176    
    908000   291.59726     -4.0487684      0              56.974424      2005.3448    
    909000   286.65647     -5.3358524      0              54.65337       2047.4366    
    910000   296.23534     -2.7213571      0              59.272456      2092.3518    
    911000   307.1673      -4.8287341      0              59.452834      2132.8506    
    912000   294.3945      -3.5285227      0              58.080054      2067.1043    
    913000   294.44406     -4.3727447      0              57.246204      2081.3535    
    914000   294.61055     -4.2402253      0              57.413564      2142.2488    
    915000   298.89541     -4.6849354      0              57.865558      2086.1283    
    916000   312.52786     -5.3132173      0              60.090168      2109.3891    
    917000   297.90239     -3.8751523      0              58.467529      2017.2641    
    918000   288.105       -5.1805304      0              55.111829      2123.2038    
    919000   305.12403     -4.2526873      0              59.601282      2106.249     
    920000   306.53307     -4.5315954      0              59.617247      2188.9554    
    921000   312.21533     -3.3595773      0              61.978404      2125.2503    
    922000   302.96845     -5.2907297      0              58.112137      2025.5482    
    923000   299.27423     -5.2029937      0              57.426775      2149.5261    
    924000   299.15431     -4.1868504      0              58.417822      2020.1566    
    925000   304.42637     -5.1150483      0              58.592919      2096.9893    
    926000   297.70183     -3.6821449      0              58.618564      2193.0068    
    927000   307.53927     -5.7280008      0              58.631411      2118.5689    
    928000   297.56069     -4.5454848      0              57.725689      2044.7527    
    929000   306.57189     -4.1735291      0              59.983437      2093.4117    
    930000   306.91135     -4.9058213      0              59.322183      2131.8611    
    931000   304.00676     -4.0637134      0              59.556442      2040.9953    
    932000   309.1656      -4.911097       0              59.788661      2041.1858    
    933000   303.24871     -3.3344369      0              60.127081      2174.5058    
    934000   299.95496     -5.3313291      0              57.440897      2083.159     
    935000   302.32397     -4.3691338      0              58.89886       2144.5121    
    936000   289.72259     -4.7219914      0              55.908884      1990.5917    
    937000   307.14628     -5.6019278      0              58.675242      2043.499     
    938000   302.35727     -4.9699458      0              58.305018      2020.5766    
    939000   304.06232     -4.7060963      0              58.925686      2110.8102    
    940000   307.26525     -5.5069963      0              58.795071      2035.6628    
    941000   300.48188     -4.4092643      0              58.473232      2217.4214    
    942000   303.01443     -3.7224333      0              59.690055      2119.0353    
    943000   303.42612     -5.0958796      0              58.402763      2128.5645    
    944000   293.76764     -4.4479929      0              57.0294        2015.8462    
    945000   303.81452     -3.6007043      0              59.979221      2144.0068    
    946000   290.68637     -5.4093136      0              55.423256      2031.7821    
    947000   311.08593     -3.8154163      0              61.286213      2141.603     
    948000   303.49753     -3.2192988      0              60.29429       2160.6392    
    949000   305.47175     -2.7606304      0              61.166106      2072.5509    
    950000   303.11198     -4.2175769      0              59.215327      2036.4265    
    951000   297.45956     -4.1553618      0              58.094648      2123.5314    
    952000   284.51365     -5.8507155      0              53.690075      2083.905     
    953000   293.70752     -5.2069447      0              56.257867      2059.4228    
    954000   302.09271     -4.1123766      0              59.107221      2129.9388    
    955000   294.48434     -4.6812829      0              56.946096      2080.088     
    956000   294.22017     -5.4984982      0              56.073597      2074.9628    
    957000   296.6647      -4.1812822      0              57.902385      2148.7352    
    958000   308.38105     -3.9973549      0              60.538218      2201.2421    
    959000   304.43947     -4.4504976      0              59.260212      2101.7532    
    960000   292.90152     -3.4204052      0              57.875733      2136.497     
    961000   309.6007      -5.0875735      0              59.703239      2121.1251    
    962000   293.56279     -3.6350101      0              57.799513      2097.2374    
    963000   298.55171     -5.3670645      0              57.1115        2144.6449    
    964000   293.68363     -3.9583821      0              57.501431      2099.8502    
    965000   298.95553     -4.9936176      0              57.569455      2108.839     
    966000   308.51418     -5.4855696      0              59.077864      2072.6154    
    967000   296.90484     -5.7980725      0              56.335849      2104.8449    
    968000   304.2041      -3.5098039      0              60.15165       2119.1364    
    969000   291.24022     -5.9068615      0              55.041614      2051.0957    
    970000   303.83845     -5.424137       0              58.160796      1939.0291    
    971000   299.13464     -3.7584837      0              58.842073      2043.0798    
    972000   300.87117     -3.9293165      0              59.034647      2023.3817    
    973000   298.79086     -5.3518182      0              57.176795      2079.2085    
    974000   289.48505     -3.6021249      0              56.979041      2047.9488    
    975000   304.41874     -3.7668067      0              59.939565      2108.2123    
    976000   310.34784     -4.9661611      0              59.981005      2020.887     
    977000   296.08123     -4.7556035      0              57.205959      2167.0788    
    978000   297.84229     -2.8746144      0              59.455489      2118.0414    
    979000   290.31615     -4.2003136      0              56.554779      2021.0779    
    980000   296.36504     -6.5372613      0              55.483694      1967.7408    
    981000   295.74246     -3.9737957      0              57.916872      2150.655     
    982000   306.87303     -5.4311012      0              58.788884      1998.8434    
    983000   293.69931     -4.1547957      0              57.308297      2118.9072    
    984000   306.19953     -6.5277474      0              57.551295      2134.841     
    985000   304.11434     -4.8317175      0              58.810952      2156.5915    
    986000   304.04174     -3.7565055      0              59.87097       2196.586     
    987000   299.85049     -2.9683171      0              59.782048      2177.7       
    988000   300.52562     -2.3615875      0              60.530062      2264.3531    
    989000   297.20555     -3.8686695      0              58.328181      2151.3818    
    990000   304.1115      -4.6582179      0              58.983858      2167.6008    
    991000   302.18511     -6.3367867      0              56.902149      2037.5802    
    992000   303.35623     -3.3648426      0              60.119174      2193.2799    
    993000   297.59572     -3.97454        0              58.303963      2132.376     
    994000   302.11894     -5.1453019      0              58.079786      2086.9674    
    995000   297.31223     -4.307956       0              57.911222      2002.3613    
    996000   291.90479     -4.8299167      0              56.257633      2088.4375    
    997000   304.32354     -4.4463468      0              59.240103      2155.4145    
    998000   310.10833     -4.197856       0              60.699189      2137.7693    
    999000   305.5351      -4.8015013      0              59.138494      2055.3356    
   1000000   302.40969     -4.9328076      0              58.353125      2112.249     
   1001000   309.03052     -4.1792599      0              60.49223       2089.6291    
   1002000   303.27763     -5.2999207      0              58.167647      2117.8341    
   1003000   300.53176     -4.4646939      0              58.428242      2091.2945    
   1004000   308.95825     -6.4257671      0              58.230598      2069.5328    
   1005000   293.95833     -3.9794171      0              57.537881      2087.7926    
   1006000   297.33253     -3.9968274      0              58.226599      2183.2158    
   1007000   308.67269     -3.8188423      0              60.777763      2093.3992    
   1008000   290.99559     -4.7286702      0              56.16861       2013.6946    
   1009000   300.1506      -4.0782621      0              58.734907      2117.4646    
   1010000   300.52167     -4.9060724      0              57.984751      2144.7156    
   1011000   298.44882     -5.41221        0              57.044824      2052.3987    
   1012000   293.125       -5.7520804      0              55.590826      1984.5649    
   1013000   298.3376      -4.0442625      0              58.389495      2097.2444    
   1014000   310.48535     -4.7084848      0              60.26746       2076.5601    
   1015000   312.79699     -5.096306       0              60.3634        2096.4306    
   1016000   299.74536     -5.0623358      0              57.666027      2037.0119    
   1017000   280.71468     -4.4236893      0              54.322082      2190.0971    
   1018000   301.32218     -3.0666872      0              59.99166       2264.2153    
   1019000   301.94167     -2.5312558      0              60.656733      2195.5442    
   1020000   299.77496     -4.4897943      0              58.244763      2005.6728    
   1021000   296.20618     -5.1155852      0              56.872126      2096.0264    
   1022000   288.91591     -3.9447109      0              56.51735       2067.1762    
   1023000   294.15322     -4.8858074      0              56.672277      2156.3464    
   1024000   296.89992     -5.903693       0              56.229198      2028.4373    
   1025000   287.80932     -6.7882388      0              53.442243      2047.0912    
   1026000   299.39089     -3.5404328      0              59.113751      2090.6768    
   1027000   293.3143      -3.6849585      0              57.697564      2130.7441    
   1028000   292.29341     -5.4334912      0              55.735386      2124.3352    
   1029000   303.94257     -4.0384739      0              59.568249      2118.6217    
   1030000   289.11493     -5.8800657      0              54.623645      2058.1114    
   1031000   292.7339      -5.0593847      0              56.201675      2082.9732    
   1032000   305.82017     -5.2845775      0              58.715075      2024.925     
   1033000   306.64237     -3.6404309      0              60.531286      2219.2273    
   1034000   305.2699      -3.9619326      0              59.922564      2187.8077    
   1035000   301.16951     -5.7221779      0              57.30422       2062.28      
   1036000   293.71604     -4.9084016      0              56.558193      2107.2263    
   1037000   294.66867     -5.6254276      0              56.040525      2027.6033    
   1038000   301.46144     -5.672236       0              57.415256      2026.7578    
   1039000   301.90609     -5.6187396      0              57.561804      2025.2815    
   1040000   297.83662     -3.6516454      0              58.677272      2129.6176    
   1041000   304.93152     -4.3811674      0              59.432514      2050.1265    
   1042000   289.55927     -6.0003075      0              54.59639       1945.3365    
   1043000   299.40396     -4.5852177      0              58.071701      2058.4013    
   1044000   292.43112     -5.7985333      0              55.399162      2063.6331    
   1045000   301.82594     -5.0412446      0              58.122527      2124.2188    
   1046000   299.54736     -3.0935404      0              59.593387      2220.3774    
   1047000   294.6236      -5.4733297      0              56.183193      2012.8238    
   1048000   299.27793     -4.1776396      0              58.452904      2144.0929    
   1049000   301.62667     -4.0958792      0              59.02619       2141.1569    
   1050000   295.05235     -4.5187798      0              57.227467      2052.6248    
   1051000   292.39002     -4.5244177      0              56.664678      2030.6944    
   1052000   293.66084     -3.2477282      0              58.207315      2109.7033    
   1053000   315.82558     -5.4481312      0              60.645374      2089.4879    
   1054000   303.78608     -4.4336014      0              59.140372      2083.4463    
   1055000   304.67133     -4.5679661      0              59.191266      2097.5616    
   1056000   312.02202     -4.2067389      0              61.090788      2145.887     
   1057000   299.87649     -5.2938839      0              57.461921      2110.7582    
   1058000   297.96551     -5.3945963      0              56.961293      2081.8057    
   1059000   296.31617     -4.9158776      0              57.094851      2103.0508    
   1060000   295.21089     -5.0757841      0              56.703641      1991.7249    
   1061000   299.14003     -5.6434397      0              56.958245      2011.5698    
   1062000   307.67159     -4.6054915      0              59.781612      2097.2273    
   1063000   296.2829      -5.1274729      0              56.876294      2064.1652    
   1064000   299.80845     -3.0663253      0              59.675241      2138.1536    
   1065000   306.46449     -5.369016       0              58.765474      2098.6486    
   1066000   294.58776     -4.1899406      0              57.459082      2133.9613    
   1067000   304.04346     -2.3739767      0              61.25386       2163.4885    
   1068000   309.81951     -2.7323616      0              62.10424       2104.0282    
   1069000   300.99806     -4.2203753      0              58.770143      2189.9683    
   1070000   297.09548     -6.5905971      0              55.58322       1976.4085    
   1071000   303.80585     -3.7615253      0              59.816585      2126.6948    
   1072000   315.24018     -3.1527011      0              62.818298      2249.3129    
   1073000   301.00368     -6.8347365      0              56.156959      1966.5493    
   1074000   289.89126     -4.8585533      0              55.807621      2094.4808    
   1075000   303.62044     -4.6782542      0              58.861056      2158.5555    
   1076000   290.96503     -4.5574971      0              56.333388      2116.5397    
   1077000   292.35294     -4.9186705      0              56.262665      1989.5232    
   1078000   301.64931     -4.4113964      0              58.715411      2115.7081    
   1079000   297.64114     -4.0080944      0              58.279915      2190.3306    
   1080000   300.11043     -5.9206116      0              56.884151      2137.6688    
   1081000   294.68121     -5.1835124      0              56.485065      2096.7798    
   1082000   289.22879     -6.4505079      0              54.07703       1968.8638    
   1083000   306.84866     -5.0902671      0              59.124619      2094.306     
   1084000   303.80319     -4.1375946      0              59.43996       2059.9383    
   1085000   292.7349      -4.8405419      0              56.420726      2052.9417    
   1086000   301.86626     -5.7768292      0              57.39538       1996.5339    
   1087000   300.35182     -5.213199       0              57.64208       2176.8712    
   1088000   299.38966     -4.31508        0              58.338845      2113.8554    
   1089000   304.07539     -3.9238493      0              59.71067       2087.2525    
   1090000   302.17407     -5.5076981      0              57.728928      1991.9096    
   1091000   310.54        -3.6383445      0              61.349036      2217.8179    
   1092000   303.66295     -4.8815422      0              58.666663      2110.1444    
   1093000   292.67452     -7.2755336      0              53.973099      1994.2533    
   1094000   310.25702     -3.5510727      0              61.377089      2204.8317    
   1095000   307.67365     -5.1768964      0              59.210637      1992.8736    
   1096000   298.7456      -4.3710059      0              58.148135      2086.6705    
   1097000   306.36353     -4.4492736      0              59.664089      2069.0025    
   1098000   311.11006     -4.9784485      0              60.12823       2001.8294    
   1099000   288.54909     -2.8901498      0              57.495146      2326.3217    
   1100000   298.91736     -5.5454112      0              57.009674      2070.2155    
   1101000   296.54156     -4.2135018      0              57.844395      2149.6638    
   1102000   288.92681     -5.2881501      0              55.176191      2046.7239    
   1103000   299.967       -2.9366864      0              59.838059      2123.8387    
   1104000   302.79308     -3.6674166      0              59.69875       2037.5166    
   1105000   292.40915     -4.0848082      0              57.108291      2015.3935    
   1106000   304.82969     -5.8352878      0              57.957084      2058.1278    
   1107000   300.58228     -4.8897477      0              58.01376       2047.9897    
   1108000   291.85655     -5.2483742      0              55.829082      2017.9195    
   1109000   299.15802     -4.9223242      0              57.683126      2124.4052    
   1110000   303.99336     -5.0785332      0              58.538819      2050.7996    
   1111000   292.22748     -6.3264976      0              54.828583      1982.5851    
   1112000   296.11566     -4.9319788      0              57.03679       2052.6085    
   1113000   297.95959     -4.1850279      0              58.169624      2045.3249    
   1114000   305.11142     -4.9986548      0              58.852675      2106.4522    
   1115000   295.00889     -5.1103722      0              56.62678       2002.8905    
   1116000   299.04097     -4.2250537      0              58.3559        2111.1373    
   1117000   295.50654     -3.7411165      0              58.100179      2118.5027    
   1118000   297.85133     -3.5521197      0              58.779875      2156.8507    
   1119000   306.3067      -3.3758344      0              60.725636      2131.3063    
   1120000   298.564       -5.9434314      0              56.537706      2107.198     
   1121000   294.47164     -6.9256584      0              54.699062      2022.4087    
   1122000   295.17485     -5.7920293      0              55.979853      2041.6921    
   1123000   300.48174     -4.0793605      0              58.803106      2039.5453    
   1124000   305.70052     -4.1384576      0              59.836154      2081.5077    
   1125000   292.74842     -4.4223835      0              56.841714      1985.2138    
   1126000   298.3445      -2.1165754      0              60.318627      2140.7168    
   1127000   307.38485     -5.4404156      0              58.88668       1907.7162    
   1128000   296.08882     -5.4033847      0              56.559768      2018.0701    
   1129000   304.04879     -4.6563682      0              58.972584      2202.581     
   1130000   299.35643     -4.3189494      0              58.328022      2066.7841    
   1131000   308.68337     -4.5353869      0              60.063453      2129.954     
   1132000   305.16753     -4.1419562      0              59.721117      2060.9313    
   1133000   295.55044     -5.295385       0              56.555098      2041.9819    
   1134000   293.70462     -4.5635052      0              56.900699      2044.1201    
   1135000   296.65155     -5.117057       0              56.963859      2110.5799    
   1136000   307.15503     -5.3730857      0              58.905914      2130.6315    
   1137000   296.75352     -3.7105569      0              58.391698      2210.6439    
   1138000   311.01832     -4.6731499      0              60.41433       2072.1642    
   1139000   303.15213     -5.9920738      0              57.449233      1974.5783    
   1140000   313.55108     -4.3642937      0              61.253222      2127.7358    
   1141000   304.86053     -4.9078294      0              58.890996      2185.6638    
   1142000   293.45527     -4.9605322      0              56.45149       1972.2498    
   1143000   311.14881     -3.7410335      0              61.373755      2086.2359    
   1144000   293.3928      -5.0736964      0              56.325253      2084.2037    
   1145000   301.07697     -6.5157883      0              56.491244      1998.8437    
   1146000   301.14506     -3.5782267      0              59.443056      2037.7704    
   1147000   299.31291     -5.7541311      0              56.883732      2036.0808    
   1148000   307.3539      -5.0730071      0              59.247611      2030.8772    
   1149000   290.27108     -5.2582793      0              55.48738       2122.3105    
   1150000   306.98914     -4.4703451      0              59.77394       2068.3323    
   1151000   301.13799     -5.726151       0              57.293651      2047.0077    
   1152000   312.91205     -6.3364235      0              59.147362      2131.3557    
   1153000   303.80534     -6.4041862      0              57.173818      2102.6494    
   1154000   312.67308     -4.6201118      0              60.813664      2085.7951    
   1155000   306.35898     -3.9941539      0              60.118255      2166.9149    
   1156000   297.6582      -3.9337247      0              58.357854      2189.9796    
   1157000   301.16057     -4.1089812      0              58.915546      2282.0397    
   1158000   296.70022     -3.8192942      0              58.271807      2107.6257    
   1159000   294.28404     -4.6862731      0              56.899187      2135.9188    
   1160000   315.37546     -5.8340628      0              60.165246      2096.7927    
   1161000   296.77223     -5.128235       0              56.977934      2041.2457    
   1162000   299.52882     -6.4942903      0              56.188756      1980.3635    
   1163000   296.55346     -3.373405       0              58.686982      2124.4485    
   1164000   288.50966     -3.118415       0              57.258628      2056.7915    
   1165000   303.2412      -4.2080543      0              59.251891      2113.0732    
   1166000   308.35883     -6.0159389      0              58.514985      2110.2149    
   1167000   300.0221      -4.7958364      0              57.990441      2121.6665    
   1168000   302.31574     -5.6259184      0              57.640353      2089.4857    
   1169000   297.21474     -5.9406328      0              56.258143      2075.3669    
   1170000   303.74934     -5.8709233      0              57.695361      2057.3078    
   1171000   300.94244     -3.495212       0              59.483667      2156.7701    
   1172000   315.46652     -4.6888036      0              61.329561      2104.5614    
   1173000   293.81335     -5.2467721      0              56.240187      2041.1054    
   1174000   302.12287     -4.8344977      0              58.391413      2119.1348    
   1175000   301.41805     -5.7742405      0              57.30417       2058.6961    
   1176000   290.60412     -3.3385722      0              57.476784      2143.7828    
   1177000   311.45439     -4.2399221      0              60.938815      2021.3287    
   1178000   297.89435     -5.0447498      0              57.296248      2149.8336    
   1179000   306.64869     -6.8345557      0              57.338483      1973.9841    
   1180000   296.90514     -5.934717       0              56.199267      2122.0656    
   1181000   291.79104     -4.7162407      0              56.347505      2050.6266    
   1182000   304.59083     -5.2296522      0              58.512732      2119.4282    
   1183000   292.65594     -3.5077636      0              57.736982      2119.339     
   1184000   303.04577     -5.82849        0              57.590556      1983.9486    
   1185000   301.83105     -4.3963664      0              58.768474      2111.0417    
   1186000   304.5963      -5.423158       0              58.320373      2076.9786    
   1187000   298.01807     -5.2193007      0              57.14759       2044.8542    
   1188000   288.12309     -4.9491788      0              55.346967      2194.6646    
   1189000   303.29061     -5.8116255      0              57.65866       2045.0214    
   1190000   303.18918     -3.922137       0              59.526922      2140.9804    
   1191000   290.72217     -2.4420218      0              58.39804       2113.2626    
   1192000   314.52235     -3.5399862      0              62.28079       2226.1849    
   1193000   303.76671     -5.5680567      0              58.001863      2010.3221    
   1194000   303.15052     -5.6839437      0              57.757026      2031.618     
   1195000   291.59117     -4.4308683      0              56.591051      1999.4266    
   1196000   307.47239     -1.925895       0              62.419522      2210.6392    
   1197000   297.49274     -4.5858023      0              57.671151      2050.5789    
   1198000   297.35486     -4.2776713      0              57.950428      2140.8913    
   1199000   300.80579     -3.2378979      0              59.712383      2147.2043    
   1200000   302.71001     -4.8771813      0              58.4716        2151.156     
   1201000   303.62201     -4.523193       0              59.016446      2088.9352    
   1202000   291.97588     -5.9296516      0              55.172775      2059.0965    
   1203000   299.77459     -4.0884337      0              58.646047      2114.1491    
   1204000   288.57855     -3.3352427      0              57.056218      2134.848     
   1205000   299.52194     -4.4725318      0              58.209076      2191.8816    
   1206000   304.70658     -4.9819308      0              58.784678      2133.4191    
   1207000   286.87054     -4.1392641      0              55.894758      2085.4622    
   1208000   290.19785     -5.3312011      0              55.399134      2040.7218    
   1209000   305.88929     -4.234529       0              59.779589      2019.6999    
   1210000   291.62387     -5.5297869      0              55.498974      1872.8012    
   1211000   309.91723     -4.2600277      0              60.597025      2111.0086    
   1212000   302.89624     -4.7700872      0              58.617668      2156.4249    
   1213000   298.29945     -3.5173994      0              58.908374      2069.9574    
   1214000   296.53359     -3.9167886      0              58.13944       2093.5116    
   1215000   297.3627      -5.6928647      0              56.536874      1958.6173    
   1216000   306.28019     -5.4007892      0              58.695133      2022.8543    
   1217000   300.86353     -5.0917531      0              57.870611      2049.3789    
   1218000   299.01881     -2.4077276      0              60.168589      2168.3605    
   1219000   305.82546     -4.8531701      0              59.14759       2011.9985    
   1220000   303.0975      -6.3114886      0              57.118385      2011.0996    
   1221000   298.19234     -4.3762842      0              58.027076      2100.2825    
   1222000   302.20323     -2.9975019      0              60.245225      2216.7507    
   1223000   301.3442      -3.8375813      0              59.225375      2136.1729    
   1224000   284.36777     -3.9528793      0              55.557383      2124.3631    
   1225000   305.57887     -5.6067115      0              58.342443      2012.6838    
   1226000   295.8827      -4.6945556      0              57.225461      2046.2383    
   1227000   305.11808     -3.2356978      0              60.617027      2167.5737    
   1228000   298.24397     -3.2826253      0              59.131538      2128.5598    
   1229000   304.23929     -4.5349649      0              59.133852      2150.4041    
   1230000   292.4306      -3.6494453      0              57.548142      2095.885     
   1231000   298.46536     -4.1916289      0              58.268865      2116.9011    
   1232000   298.70241     -5.5120853      0              56.998018      2063.6275    
   1233000   295.11492     -5.3736721      0              56.385668      2038.3006    
   1234000   306.23734     -4.935002       0              59.151952      2112.1204    
   1235000   310.05592     -5.1332384      0              59.752839      2154.7965    
   1236000   299.32122     -5.1365625      0              57.503041      2131.0435    
   1237000   294.9473      -4.471923       0              57.25234       1955.6637    
   1238000   311.18516     -5.5667235      0              59.555671      1992.5603    
   1239000   295.24349     -4.7981324      0              56.988115      2005.7878    
   1240000   294.12041     -6.1346728      0              55.416545      2014.7028    
   1241000   291.63318     -6.119448       0              54.911261      2040.2073    
   1242000   300.50975     -5.5061308      0              57.382197      2088.8327    
   1243000   294.11916     -5.4380642      0              56.112892      2104.9989    
   1244000   298.81874     -5.1420684      0              57.392379      2063.2853    
   1245000   290.48227     -4.0250799      0              56.764776      2105.4573    
   1246000   304.67603     -5.2269833      0              58.533232      2062.2018    
   1247000   298.1567      -3.190938       0              59.204962      2095.1689    
   1248000   297.69717     -4.2260996      0              58.073634      2128.0098    
   1249000   297.45275     -5.000816       0              57.247768      2144.6781    
   1250000   309.27853     -4.0678293      0              60.655562      2133.3039    
   1251000   300.25855     -4.9963367      0              57.839424      2131.4806    
   1252000   300.67503     -5.6287911      0              57.294127      2035.1863    
   1253000   307.22605     -3.7092653      0              60.584598      2033.8301    
   1254000   288.40107     -5.6708507      0              54.683469      1983.3908    
   1255000   284.514       -5.5014536      0              54.039411      2058.7101    
   1256000   308.46745     -4.9946874      0              59.558967      2101.1188    
   1257000   303.6131      -5.0836027      0              58.454171      2087.0022    
   1258000   301.58725     -4.0697481      0              59.044071      2110.9758    
   1259000   287.90042     -5.585217       0              54.66433       2044.9067    
   1260000   294.97421     -2.5796896      0              59.150205      2074.1517    
   1261000   304.25562     -4.4284206      0              59.243815      2154.184     
   1262000   289.6936      -6.295665       0              54.329145      1964.0053    
   1263000   296.13307     -5.4410331      0              56.531379      1951.6606    
   1264000   291.75853     -4.8542813      0              56.202661      2037.5083    
   1265000   300.5741      -4.5329455      0              58.368851      2072.8249    
   1266000   301.23151     -3.0953359      0              59.944037      2195.9763    
   1267000   301.5984      -3.4385919      0              59.677562      2128.7233    
   1268000   295.83892     -4.2748572      0              57.635997      2051.2908    
   1269000   299.03297     -3.9026079      0              58.676673      2049.1364    
   1270000   295.64301     -5.2276708      0              56.642186      2005.5986    
   1271000   298.27866     -5.5032237      0              56.9182        2073.3674    
   1272000   307.6634      -3.4260912      0              60.959298      2193.2734    
   1273000   302.56539     -3.8101649      0              59.508353      2033.1963    
   1274000   298.83538     -4.1714151      0              58.366515      2024.5645    
   1275000   300.40471     -6.7192034      0              56.147143      2080.4974    
   1276000   296.31643     -4.4222139      0              57.58857       2046.3006    
   1277000   304.30777     -4.6811533      0              59.001995      2124.1948    
   1278000   290.97285     -4.8644049      0              56.028116      2006.5871    
   1279000   299.85348     -6.0114531      0              56.739537      2075.3475    
   1280000   302.12162     -4.8956822      0              58.329966      2181.8653    
   1281000   305.69746     -3.7611921      0              60.212781      2173.076     
   1282000   310.51591     -4.5359176      0              60.446422      1992.7976    
   1283000   292.69947     -5.4034762      0              55.850378      2068.63      
   1284000   296.5921      -2.9743192      0              59.094154      2166.7423    
   1285000   308.24297     -4.0759681      0              60.430708      2106.6027    
   1286000   295.79293     -5.1581182      0              56.743112      2019.3413    
   1287000   297.37911     -4.5357099      0              57.697464      2073.3498    
   1288000   306.23154     -4.3200356      0              59.765705      2127.151     
   1289000   293.06568     -4.2508908      0              57.079602      2084.5119    
   1290000   310.85528     -4.6864694      0              60.36689       2092.8522    
   1291000   292.47334     -4.0688122      0              57.137721      2103.1168    
   1292000   304.48696     -4.0097399      0              59.710908      2086.8239    
   1293000   300.58259     -3.6499269      0              59.253646      2116.8315    
   1294000   295.31645     -4.5493524      0              57.252164      2136.7445    
   1295000   313.00755     -4.8587089      0              60.645061      2143.8446    
   1296000   301.45934     -5.5482202      0              57.538831      2074.3213    
   1297000   307.69563     -4.1110278      0              60.281105      2155.3041    
   1298000   295.13111     -3.9470461      0              57.815684      2114.5546    
   1299000   297.95014     -4.1383985      0              58.214276      2032.3655    
   1300000   310.21473     -4.6846632      0              60.234649      2101.2522    
   1301000   292.23778     -4.0852947      0              57.07194       2082.0016    
   1302000   303.02171     -5.2070233      0              58.206988      2066.6931    
   1303000   303.24614     -4.3577848      0              59.103195      1984.3402    
   1304000   300.40288     -4.5259947      0              58.339969      2020.8763    
   1305000   301.48445     -5.5184564      0              57.57385       2023.9018    
   1306000   288.65375     -5.61384        0              54.793357      2034.4332    
   1307000   294.41555     -4.5761182      0              57.036864      2108.6706    
   1308000   306.59473     -4.0867008      0              60.075046      2145.2001    
   1309000   304.59585     -4.800631       0              58.942806      2102.5431    
   1310000   299.75846     -5.5750003      0              57.156105      1949.0942    
   1311000   292.5309      -3.4334508      0              57.785127      2102.429     
   1312000   299.82569     -4.1287784      0              58.616396      2089.5054    
   1313000   297.61011     -4.4737772      0              57.807739      2105.472     
   1314000   291.63754     -4.2536781      0              56.777945      2113.4341    
   1315000   298.08757     -4.7688167      0              57.612617      2084.1026    
   1316000   300.83627     -4.1702445      0              58.786416      2175.667     
   1317000   302.87498     -4.5431396      0              58.840167      2036.3213    
   1318000   302.86053     -3.8561662      0              59.524115      2141.1972    
   1319000   292.69301     -5.0101698      0              56.242334      2083.2434    
   1320000   294.14871     -6.5157336      0              55.041406      2019.4218    
   1321000   302.66411     -4.9517955      0              58.387381      1979.0051    
   1322000   296.43865     -3.2096731      0              58.826689      2179.3119    
   1323000   305.18436     -5.9352147      0              57.93138       1985.3439    
   1324000   302.75788     -5.7919238      0              57.566877      2103.7132    
   1325000   293.10091     -4.980073       0              56.357791      2096.0503    
   1326000   306.65334     -4.9349426      0              59.239069      2054.5976    
   1327000   289.56339     -5.3126819      0              55.284878      2008.6272    
   1328000   300.66196     -5.7568889      0              57.163294      2052.8317    
   1329000   306.18316     -4.2154715      0              59.860145      2162.4806    
   1330000   297.74177     -3.401847       0              58.90722       2164.6721    
   1331000   295.16788     -4.4728322      0              57.297592      2084.7064    
   1332000   298.14835     -5.2302622      0              57.163891      2039.8799    
   1333000   300.49109     -4.5559416      0              58.328481      2114.9583    
   1334000   298.24708     -4.2846102      0              58.130205      2089.0162    
   1335000   297.86965     -6.1384071      0              56.197423      1924.0109    
   1336000   305.3001      -4.9967787      0              58.894036      1981.9416    
   1337000   299.09962     -4.6437022      0              57.949527      2141.8072    
   1338000   299.59419     -4.0625548      0              58.634172      2116.4108    
   1339000   300.18414     -3.3348877      0              59.4853        2124.7803    
   1340000   299.59594     -4.5042628      0              58.192832      2109.6771    
   1341000   314.66351     -5.1055337      0              60.744784      2177.8073    
   1342000   299.68834     -3.8979941      0              58.818437      2166.8868    
   1343000   301.43827     -2.9989823      0              60.08366       2203.941     
   1344000   294.01081     -4.0155148      0              57.512767      2131.557     
   1345000   303.13827     -4.0579668      0              59.380437      2099.0133    
   1346000   310.77256     -4.1938463      0              60.842204      2068.0595    
   1347000   299.49065     -4.1947401      0              58.480321      2076.1202    
   1348000   296.79562     -4.9720121      0              57.139052      2057.4305    
   1349000   295.73338     -3.5144736      0              58.374293      2183.8375    
   1350000   300.47523     -4.5018395      0              58.379265      2119.8528    
   1351000   304.37667     -6.0248778      0              57.672689      2077.546     
   1352000   297.30057     -5.4846442      0              56.732092      2112.7211    
   1353000   301.79969     -5.2115705      0              57.946707      2209.3421    
   1354000   299.37136     -4.5646667      0              58.085429      2207.638     
   1355000   294.99332     -4.9186086      0              56.815284      2019.6269    
   1356000   289.81689     -3.7073927      0              56.943219      2071.4916    
   1357000   301.70266     -5.3342499      0              57.803722      2162.034     
   1358000   291.51489     -4.0837647      0              56.92219       2146.0634    
   1359000   298.10264     -5.0939779      0              57.29061       2083.2525    
   1360000   296.44157     -4.6809292      0              57.356043      2071.9895    
   1361000   296.55881     -3.1522218      0              58.909285      2110.8729    
   1362000   306.17148     -4.7806261      0              59.292546      2039.8844    
   1363000   298.27612     -2.7687137      0              59.652179      2148.3554    
   1364000   301.02245     -4.0711512      0              58.924472      2158.6628    
   1365000   307.78146     -4.5037909      0              59.906305      2178.7441    
   1366000   294.13088     -5.2578617      0              56.295547      2080.6742    
   1367000   319.64509     -3.3182703      0              63.574554      2269.4029    
   1368000   306.81035     -3.8372609      0              60.369608      2187.565     
   1369000   298.92219     -4.2621973      0              58.293899      2101.3427    
   1370000   300.05445     -3.2409403      0              59.552108      2074.8952    
   1371000   301.51096     -3.9331638      0              59.16469       2095.8946    
   1372000   294.33764     -5.2345226      0              56.362155      2101.9154    
   1373000   310.99134     -4.8722951      0              60.209538      2202.9668    
   1374000   282.12682     -5.7528211      0              53.288472      1991.7528    
   1375000   302.11049     -5.1651347      0              58.058185      2180.5875    
   1376000   294.9475      -5.3766004      0              56.347704      2032.9613    
   1377000   301.41916     -3.9123315      0              59.166312      2181.7344    
   1378000   291.39061     -5.909227       0              55.070719      1985.0938    
   1379000   295.00943     -4.6120552      0              57.12521       2054.3973    
   1380000   308.40087     -4.5694871      0              59.970234      2065.939     
   1381000   297.63989     -3.7832865      0              58.504461      2083.7494    
   1382000   288.79129     -3.7754773      0              56.660504      2018.9993    
   1383000   297.06891     -4.7077798      0              57.460477      2036.004     
   1384000   302.25623     -5.9849388      0              57.26888       2048.4297    
   1385000   310.0379      -4.7467473      0              60.135558      2131.4871    
   1386000   303.37818     -4.5072074      0              58.981403      2087.038     
   1387000   297.97405     -4.9366704      0              57.421007      1979.7816    
   1388000   300.65306     -4.6430485      0              58.275271      2016.8284    
   1389000   301.98042     -2.9857114      0              60.210388      2167.4167    
   1390000   290.59241     -5.7940196      0              55.018887      2049.235     
   1391000   302.48975     -4.4097801      0              58.892907      2110.7091    
   1392000   303.78248     -5.484066       0              58.089154      2056.7167    
   1393000   291.46805     -5.2906613      0              55.705491      2088.249     
   1394000   301.53154     -4.4560581      0              58.646102      2140.6587    
   1395000   302.35403     -3.168109       0              60.106176      2065.4626    
   1396000   301.94774     -4.3636014      0              58.82566       2031.6811    
   1397000   285.76227     -3.526465       0              56.275627      2146.9147    
   1398000   293.65073     -4.2275125      0              57.225414      2157.1533    
   1399000   293.6807      -4.8981548      0              56.561045      2060.7587    
   1400000   295.51011     -3.6966623      0              58.145381      2146.1286    
   1401000   306.20547     -3.603058       0              60.477228      2111.0448    
   1402000   288.70356     -4.8096517      0              55.607971      2019.6952    
   1403000   307.79268     -4.738912       0              59.673531      2117.3392    
   1404000   307.01365     -4.2205693      0              60.028844      2060.0945    
   1405000   298.24337     -4.9714331      0              57.442606      2073.9855    
   1406000   308.45124     -4.6527392      0              59.897523      2129.9693    
   1407000   298.10898     -5.8909405      0              56.494974      2045.621     
   1408000   302.99122     -4.1073698      0              59.300261      2250.7405    
   1409000   299.02696     -5.0189555      0              57.559067      2043.5066    
   1410000   297.11961     -5.2889033      0              56.889963      2107.7123    
   1411000   294.2627      -4.5229643      0              57.05803       2067.0502    
   1412000   300.27493     -4.5363423      0              58.302846      2043.3221    
   1413000   305.62678     -6.1813858      0              57.777794      1980.0086    
   1414000   303.2379      -4.2240091      0              59.235245      2205.5407    
   1415000   302.89131     -4.2772637      0              59.10946       2118.6371    
   1416000   298.63238     -2.8896315      0              59.605815      2183.8256    
   1417000   296.17171     -4.0164338      0              57.964064      2152.3153    
   1418000   298.46716     -5.0461804      0              57.41469       1971.9946    
   1419000   299.70373     -4.1888745      0              58.530777      2100.7732    
   1420000   283.96277     -5.4309194      0              53.994586      2035.6276    
   1421000   300.07159     -5.6275093      0              57.169125      2035.3811    
   1422000   296.70428     -4.135696       0              57.956254      2077.655     
   1423000   311.24663     -4.9663415      0              60.168918      2084.318     
   1424000   308.31481     -3.7478133      0              60.773897      2305.1169    
   1425000   305.65926     -4.286182       0              59.679796      2066.2653    
   1426000   293.63163     -5.1473096      0              56.301619      1996.0471    
   1427000   304.18892     -6.3380777      0              57.320199      2012.6191    
   1428000   300.09679     -5.908002       0              56.893906      2035.8947    
   1429000   296.28037     -5.8465397      0              56.156697      2084.0035    
   1430000   300.57915     -4.1142935      0              58.788559      2161.4495    
   1431000   308.04306     -5.5510875      0              58.913754      2161.4262    
   1432000   298.65537     -4.9729086      0              57.527351      2102.6816    
   1433000   305.82975     -3.8870811      0              60.114577      2154.3386    
   1434000   297.91608     -2.9298707      0              59.415676      2113.7608    
   1435000   301.31346     -4.1809714      0              58.875552      2077.6056    
   1436000   296.3385      -4.6561569      0              57.359245      2019.0766    
   1437000   297.72915     -5.3304394      0              56.975988      2138.6589    
   1438000   304.40679     -3.6945417      0              60.009329      2051.446     
   1439000   303.69613     -5.1335506      0              58.421598      2088.2079    
   1440000   298.46403     -4.6547661      0              57.805451      1951.6848    
   1441000   300.52941     -4.6247847      0              58.267658      2078.7513    
   1442000   310.77355     -3.1324242      0              61.903833      2137.6959    
   1443000   298.79017     -2.7639013      0              59.764567      2168.659     
   1444000   298.56751     -6.1859228      0              56.29595       1986.9947    
   1445000   293.28339     -4.5585861      0              56.817467      2061.1072    
   1446000   310.64298     -5.3733704      0              59.635561      2082.8207    
   1447000   306.72289     -4.5911254      0              59.597441      2012.8852    
   1448000   295.08249     -3.9300689      0              57.822485      2119.5275    
   1449000   295.07628     -3.7371371      0              58.014118      2086.7992    
   1450000   307.01682     -4.7957382      0              59.454339      2088.1986    
   1451000   298.12648     -6.1560718      0              56.233504      1938.5278    
   1452000   305.97132     -5.5006364      0              58.530648      2070.8443    
   1453000   293.02678     -4.9768589      0              56.345493      2014.9985    
   1454000   303.015       -4.2431704      0              59.169437      2093.0442    
   1455000   299.65972     -2.3634786      0              60.346963      2183.9965    
   1456000   296.18808     -4.4516301      0              57.532293      2071.4552    
   1457000   300.08455     -5.0990403      0              57.700306      2059.4633    
   1458000   302.18202     -4.7508823      0              58.487406      2077.8066    
   1459000   292.70617     -3.9127887      0              57.342467      2073.6798    
   1460000   303.1028      -4.9026063      0              58.528376      2132.9992    
   1461000   289.73057     -5.7259322      0              54.906614      1973.2446    
   1462000   302.38076     -4.5907414      0              58.689137      2159.318     
   1463000   294.62834     -4.5555269      0              57.101986      2094.538     
   1464000   295.70066     -4.932839       0              56.949082      2094.0502    
   1465000   306.8806      -6.2786886      0              57.942881      1999.7032    
   1466000   308.1336      -3.15223        0              61.331559      2215.5745    
   1467000   292.27037     -2.9781625      0              58.185894      2215.3564    
   1468000   284.89133     -5.5600889      0              54.059738      1976.0369    
   1469000   298.32108     -4.3011676      0              58.129133      2146.2248    
   1470000   301.96168     -4.4892257      0              58.702951      2053.8682    
   1471000   302.12161     -5.4119783      0              57.813669      2104.9504    
   1472000   291.83206     -4.3353417      0              56.736988      2076.0168    
   1473000   305.85332     -3.3782807      0              60.628308      2223.143     
   1474000   294.75245     -4.933152       0              56.750334      1996.738     
   1475000   285.51742     -3.6268453      0              56.124006      2212.2063    
   1476000   296.89925     -4.9440928      0              57.188658      1913.0748    
   1477000   296.50253     -4.9365776      0              57.113151      2043.745     
   1478000   299.63947     -6.2359903      0              56.470213      2053.4518    
   1479000   294.1244      -5.4592818      0              56.09277       2038.8688    
   1480000   303.17081     -5.1310041      0              58.314211      2093.3662    
   1481000   299.79784     -3.9059189      0              58.833428      2157.5832    
   1482000   306.06253     -4.9639822      0              59.08639       2077.1792    
   1483000   293.52109     -4.1113618      0              57.314435      2151.2349    
   1484000   309.41682     -3.9092684      0              60.843062      2081.1982    
   1485000   301.24041     -3.6367459      0              59.40449       2200.1263    
   1486000   305.44403     -3.6893894      0              60.231548      2145.9689    
   1487000   301.3815      -5.23129        0              57.839473      2078.5081    
   1488000   294.78245     -5.4822629      0              56.207502      1974.0811    
   1489000   308.51729     -4.5732365      0              59.990847      2117.0273    
   1490000   297.65409     -3.1135186      0              59.177201      2122.6847    
   1491000   298.15066     -4.66335        0              57.731287      2059.2689    
   1492000   295.15912     -4.2757304      0              57.492861      2176.3657    
   1493000   297.85407     -4.6013676      0              57.731202      2085.5191    
   1494000   312.03924     -5.2524938      0              60.048637      2048.926     
   1495000   304.64505     -3.7676081      0              59.986124      2148.7342    
   1496000   302.08905     -5.9213975      0              57.297434      2096.6413    
   1497000   302.39641     -4.9334806      0              58.349674      1970.394     
   1498000   293.21317     -2.8731246      0              58.488232      2167.9009    
   1499000   296.33932     -4.5737423      0              57.441831      2092.6065    
   1500000   297.2198      -5.4371227      0              56.762712      2012.61      
   1501000   302.15817     -3.5431927      0              59.690106      2168.2351    
   1502000   285.09611     -3.6459226      0              56.01676       2006.6723    
   1503000   295.7168      -3.5408672      0              58.344431      2001.8901    
   1504000   297.43824     -1.5080484      0              60.737498      2218.4906    
   1505000   304.10343     -4.1986343      0              59.441752      2079.1741    
   1506000   301.72274     -3.0387704      0              60.103404      2209.4535    
   1507000   294.56785     -5.7406782      0              55.904176      2076.311     
   1508000   289.5289      -4.9120957      0              55.678248      2157.5988    
   1509000   306.7075      -6.6829075      0              57.502437      2130.0701    
   1510000   300.87598     -5.7674977      0              57.197472      2219.5045    
   1511000   291.88901     -5.7934652      0              55.290782      2154.8241    
   1512000   301.69642     -4.9874166      0              58.149249      2138.9168    
   1513000   291.86106     -3.8564705      0              57.221929      2048.5946    
   1514000   294.75007     -3.5740495      0              58.108938      2137.3853    
   1515000   302.22926     -4.5417764      0              58.706398      2094.3079    
   1516000   299.69015     -4.7370419      0              57.979769      2094.5652    
   1517000   293.60267     -3.5903588      0              57.852511      2057.3803    
   1518000   296.55028     -3.6003636      0              58.459358      2148.8238    
   1519000   300.32102     -4.5419462      0              58.306886      2035.7694    
   1520000   291.5095      -4.9598494      0              56.044977      2069.2408    
   1521000   298.06582     -6.6302045      0              55.746677      1976.8906    
   1522000   291.75449     -5.0822313      0              55.973865      2048.2779    
   1523000   306.73007     -4.4231039      0              59.766965      2070.3459    
   1524000   303.08293     -4.818187       0              58.608636      2045.0077    
   1525000   314.67647     -3.9252817      0              61.927748      2165.4032    
   1526000   298.86817     -3.8581679      0              58.686624      2206.7231    
   1527000   301.57521     -4.3272337      0              58.784065      2062.2361    
   1528000   299.19695     -2.9422394      0              59.671358      2124.342     
   1529000   292.92936     -5.934513       0              55.367452      2007.0385    
   1530000   304.92248     -4.1427437      0              59.669046      2167.8794    
   1531000   298.91657     -5.0884432      0              57.466478      2131.1732    
   1532000   295.27406     -3.775574       0              58.01707       2098.6987    
   1533000   298.79947     -3.1312698      0              59.399146      2089.5642    
   1534000   298.089       -3.9352733      0              58.44646       2131.3357    
   1535000   301.43745     -4.788159       0              58.294313      2101.572     
   1536000   296.65336     -4.5657956      0              57.515499      2051.3706    
   1537000   308.82596     -3.5857177      0              61.042962      2098.1224    
   1538000   306.49079     -4.6020529      0              59.537941      2176.8542    
   1539000   303.18635     -3.4995795      0              59.948888      2063.8758    
   1540000   307.1811      -5.9057451      0              58.378711      2028.4041    
   1541000   290.38643     -3.5679821      0              57.201819      2098.5159    
   1542000   307.53588     -4.4742792      0              59.884423      2047.9794    
   1543000   305.92832     -5.0151399      0              59.007145      2009.1456    
   1544000   293.82618     -3.6493796      0              57.840263      2174.2079    
   1545000   300.24975     -1.7819699      0              61.051948      2329.9504    
   1546000   296.46367     -5.2485822      0              56.793016      2163.1048    
   1547000   319.18052     -5.8518169      0              60.943784      2034.3011    
   1548000   296.57189     -2.7277859      0              59.336458      2107.0321    
   1549000   298.43147     -4.8143508      0              57.639052      2132.9431    
   1550000   298.70891     -4.3725755      0              58.138888      2060.0102    
   1551000   298.82488     -4.7177952      0              57.817938      2059.7688    
   1552000   300.2309      -4.4869818      0              58.342992      2067.4957    
   1553000   295.45309     -4.4355383      0              57.394573      2100.704     
   1554000   286.53153     -5.0131987      0              54.949878      2083.3823    
   1555000   306.3488      -4.0244759      0              60.085805      2099.7722    
   1556000   299.02327     -4.1965838      0              58.380667      2104.4305    
   1557000   301.1136      -4.0725781      0              58.942121      2200.526     
   1558000   301.19267     -3.5930464      0              59.438198      2097.8895    
   1559000   296.28457     -7.8446414      0              54.159475      1971.4776    
   1560000   302.53857     -4.5461552      0              58.76675       2123.9465    
   1561000   299.09395     -5.009739       0              57.582303      2061.9479    
   1562000   294.27131     -3.4591263      0              58.12367       2218.1325    
   1563000   298.90981     -4.5614247      0              57.992081      2049.9582    
   1564000   298.14477     -3.292          0              59.101405      2164.6127    
   1565000   299.02288     -5.2231891      0              57.353979      2100.1229    
   1566000   296.95641     -3.7576599      0              58.387053      2136.9499    
   1567000   304.68666     -3.7006802      0              60.06176       2095.8769    
   1568000   294.97246     -5.2441279      0              56.485401      1898.8136    
   1569000   300.34672     -4.7254863      0              58.128726      2181.3018    
   1570000   289.94395     -4.4211313      0              56.256069      2082.1561    
   1571000   302.55367     -4.6833055      0              58.632758      2039.1116    
   1572000   297.61023     -5.6056974      0              56.675843      2078.3227    
   1573000   300.78823     -4.5005524      0              58.446054      2108.8987    
   1574000   300.85932     -4.2382147      0              58.72327       2139.3052    
   1575000   304.7101      -4.8860955      0              58.881249      2018.9516    
   1576000   301.23191     -5.015177       0              58.024279      2069.3113    
   1577000   304.60448     -4.9701527      0              58.775088      2117.8792    
   1578000   308.2414      -2.8852192      0              61.621128      2115.2876    
   1579000   297.49816     -4.0666759      0              58.19141       2078.0765    
   1580000   295.83742     -4.8276473      0              57.082892      2120.4319    
   1581000   295.71783     -3.2152714      0              58.670242      2136.2581    
   1582000   297.63212     -2.3091606      0              59.976961      2173.8518    
   1583000   293.63597     -4.0160761      0              57.433761      2196.4757    
   1584000   311.31597     -5.9147405      0              59.23503       2119.13      
   1585000   306.23679     -5.4426378      0              58.644202      2063.6172    
   1586000   299.85672     -4.664071       0              58.087596      2061.1732    
   1587000   312.81305     -5.4339641      0              60.029104      1948.2817    
   1588000   299.1976      -4.7096519      0              57.90408       2008.2811    
   1589000   296.9726      -2.7341185      0              59.413984      2162.2085    
   1590000   304.67831     -6.8836171      0              56.877075      2104.392     
   1591000   296.4659      -3.8391932      0              58.202871      2150.8284    
   1592000   312.07923     -4.4942181      0              60.815282      2159.905     
   1593000   297.91265     -5.7156845      0              56.629145      2045.1403    
   1594000   301.10866     -5.9817021      0              57.031962      2049.1396    
   1595000   297.91492     -4.1032662      0              58.242036      2120.8397    
   1596000   300.6589      -3.5278741      0              59.391667      2128.8489    
   1597000   297.86751     -3.3725387      0              58.962842      2154.0073    
   1598000   294.02351     -5.8009571      0              55.729982      1985.1931    
   1599000   305.6277      -4.8941507      0              59.065222      2075.6351    
   1600000   303.94255     -3.3193886      0              60.28733       2091.4565    
   1601000   301.27733     -5.9297151      0              57.119247      2017.3602    
   1602000   304.45838     -5.046889       0              58.667778      2086.7366    
   1603000   292.32806     -4.0408761      0              57.135252      2070.5146    
   1604000   293.15059     -5.2991328      0              56.04913       2002.4918    
   1605000   303.70901     -4.086104       0              59.471741      2265.8274    
   1606000   301.31881     -5.6591956      0              57.398447      2087.7881    
   1607000   308.05487     -4.5818584      0              59.885455      2105.4053    
   1608000   308.54404     -4.0619692      0              60.507714      2126.7293    
   1609000   303.48807     -5.2127067      0              58.298901      2098.5979    
   1610000   302.44221     -4.4725428      0              58.820196      2127.1712    
   1611000   307.41963     -4.0469015      0              60.287473      2096.6624    
   1612000   300.69497     -3.7887835      0              59.138307      2073.8933    
   1613000   297.15993     -4.2310749      0              57.956229      2184.0295    
   1614000   297.27425     -5.0215283      0              57.189701      2099.7991    
   1615000   295.43672     -3.8862447      0              57.94044       2070.2625    
   1616000   295.82479     -3.9901862      0              57.917712      2099.867     
   1617000   304.37154     -5.6274671      0              58.069027      2106.7845    
   1618000   298.53419     -4.2563391      0              58.218561      2146.9546    
   1619000   298.57854     -4.0954582      0              58.388723      2015.1274    
   1620000   301.67464     -4.8992423      0              58.232865      2107.2879    
   1621000   296.64417     -4.7878056      0              57.291565      2032.2223    
   1622000   290.16968     -4.5760038      0              56.148437      2132.5259    
   1623000   302.79649     -4.7632396      0              58.60364       2069.7106    
   1624000   298.22217     -4.6577115      0              57.75189       2113.8071    
   1625000   297.38241     -4.4979935      0              57.735871      2105.0826    
   1626000   306.7038      -6.1476302      0              58.036941      2032.4002    
   1627000   306.75568     -4.7696312      0              59.425797      2146.4328    
   1628000   303.70536     -4.7076815      0              58.849399      2048.8748    
   1629000   295.79237     -4.787408       0              57.113704      2143.8868    
   1630000   305.02576     -4.2902741      0              59.543131      2010.6106    
   1631000   300.51983     -3.7432402      0              59.147199      1991.31      
   1632000   314.67583     -5.8549331      0              59.997963      2087.2692    
   1633000   302.0064      -5.606343       0              57.595193      2013.3297    
   1634000   303.44951     -4.8171842      0              58.686354      2083.0711    
   1635000   296.306       -5.8084801      0              56.200121      1998.2233    
   1636000   299.19776     -4.1940332      0              58.419733      2082.9948    
   1637000   295.13388     -4.6760789      0              57.087229      2114.8699    
   1638000   295.36949     -3.0726431      0              58.739973      2168.7904    
   1639000   295.39654     -6.1535691      0              55.664708      2103.8318    
   1640000   296.30522     -6.2046505      0              55.803786      1984.1895    
   1641000   300.92012     -4.4531656      0              58.521042      2088.2449    
   1642000   305.08704     -4.6554155      0              59.190812      2113.5065    
   1643000   298.80431     -5.1255382      0              57.405889      2118.3411    
   1644000   303.45293     -4.0909175      0              59.413337      2069.0525    
   1645000   299.92273     -5.008316       0              57.757166      2071.2364    
   1646000   303.56628     -4.3245846      0              59.203391      1986.8965    
   1647000   301.11192     -3.396634       0              59.617713      2111.2017    
   1648000   310.41593     -5.1161295      0              59.845287      2149.4626    
   1649000   298.55345     -2.8340653      0              59.644865      2140.2604    
   1650000   298.03088     -4.7990241      0              57.570546      2083.9095    
   1651000   311.1932      -4.1792039      0              60.944874      2211.0347    
   1652000   299.16843     -2.7110986      0              59.89653       2176.4655    
   1653000   299.44328     -5.1557446      0              57.509402      2046.5913    
   1654000   290.09659     -4.3434643      0              56.365681      2061.6899    
   1655000   294.68027     -4.7088209      0              56.95956       2145.2918    
   1656000   303.48375     -5.944867       0              57.565838      2095.7868    
   1657000   294.02356     -3.6576973      0              57.873253      2114.1334    
   1658000   290.60924     -3.8946248      0              56.921803      2045.9298    
   1659000   298.0517      -2.6943347      0              59.679593      2191.2586    
   1660000   300.51933     -4.8303591      0              58.059974      2071.5289    
   1661000   298.52378     -5.1658458      0              57.306876      2165.0371    
   1662000   300.54482     -3.9052495      0              58.990418      2018.5764    
   1663000   297.15059     -4.1036288      0              58.081721      2167.6089    
   1664000   299.4636      -6.9024263      0              55.766974      2009.0049    
   1665000   289.88014     -5.7980181      0              54.865828      2072.4668    
   1666000   298.115       -4.4008916      0              57.986283      2171.4853    
   1667000   298.16486     -5.0732269      0              57.324382      2132.4812    
   1668000   299.62472     -4.4787692      0              58.224348      2186.9111    
   1669000   301.51349     -4.7952901      0              58.303093      2001.8707    
   1670000   295.25        -5.7593915      0              56.028218      2068.8016    
   1671000   293.06128     -4.4640599      0              56.865512      2063.9356    
   1672000   303.80645     -4.7418829      0              58.836353      2026.1792    
   1673000   293.57795     -3.2519932      0              58.185703      2069.7217    
   1674000   292.42776     -3.5987022      0              57.598291      2139.0669    
   1675000   297.67498     -5.6885865      0              56.606504      1979.0984    
   1676000   299.17091     -5.4034047      0              57.204743      1979.4829    
   1677000   306.99699     -4.8701763      0              59.375751      2008.9304    
   1678000   299.92038     -5.8089959      0              56.955994      2081.4993    
   1679000   293.4423      -5.0181759      0              56.391133      2007.8031    
   1680000   301.20708     -2.8376592      0              60.196601      2248.856     
   1681000   303.40398     -4.0904754      0              59.403536      2138.1269    
   1682000   298.12239     -2.723548       0              59.665173      2110.0074    
   1683000   298.72594     -4.6666418      0              57.848385      2030.5401    
   1684000   304.74446     -6.3424292      0              57.432106      2070.9297    
   1685000   295.42502     -3.8911296      0              57.933106      2087.411     
   1686000   302.34808     -3.3699209      0              59.903119      2108.9361    
   1687000   297.71048     -5.177339       0              57.12518       2156.1091    
   1688000   308.48871     -4.0270277      0              60.531076      2118.042     
   1689000   286.33368     -4.8153639      0              55.106308      2015.5217    
   1690000   305.93994     -5.3275604      0              58.697157      2097.0775    
   1691000   311.38105     -4.7958638      0              60.367525      2157.9387    
   1692000   296.99133     -4.1620981      0              57.989924      2157.7098    
   1693000   288.54952     -4.5666106      0              55.818774      1988.6572    
   1694000   292.74666     -4.2871621      0              56.976569      2115.6059    
   1695000   307.23213     -5.2292129      0              59.065924      2072.5908    
   1696000   305.76139     -4.2110061      0              59.776345      2244.4238    
   1697000   299.83444     -4.9624993      0              57.784505      2094.1227    
   1698000   300.8638      -4.1692978      0              58.793124      2075.8446    
   1699000   293.80876     -4.7971256      0              56.688872      2117.449     
   1700000   310.99935     -4.6595836      0              60.423927      2135.5646    
   1701000   307.17388     -3.6623042      0              60.620642      2152.7667    
   1702000   300.81709     -3.1726695      0              59.779978      2021.9525    
   1703000   299.24456     -3.5950947      0              59.028466      2211.2079    
   1704000   299.45121     -4.2652024      0              58.401603      2004.4344    
   1705000   302.40739     -4.4827683      0              58.802684      1960.2046    
   1706000   299.43844     -3.2271409      0              59.436993      2042.4056    
   1707000   305.21589     -3.0671546      0              60.806038      2138.8728    
   1708000   304.38027     -2.8080129      0              60.890309      2099.1386    
   1709000   301.29689     -4.7499693      0              58.303085      2120.1821    
   1710000   307.25995     -4.9188436      0              59.382114      2106.942     
   1711000   293.81614     -4.5799471      0              56.907596      2077.6918    
   1712000   306.4833      -5.1788833      0              58.959543      2096.9369    
   1713000   302.588       -4.562823       0              58.760425      2128.5977    
   1714000   296.5043      -4.5634325      0              57.486667      2010.3579    
   1715000   295.69957     -4.4274296      0              57.454263      2006.4024    
   1716000   302.96533     -6.0543195      0              57.347895      2014.6766    
   1717000   307.9683      -4.5858901      0              59.863306      2122.4836    
   1718000   314.16197     -5.2204995      0              60.52486       2020.3015    
   1719000   299.85588     -5.6526285      0              57.098864      2121.9374    
   1720000   302.11301     -4.7885026      0              58.435345      2083.6687    
   1721000   306.94554     -5.0352294      0              59.199932      2086.8549    
   1722000   295.48625     -6.7745519      0              55.062498      1967.6975    
   1723000   312.70575     -5.0912078      0              60.349406      2127.1128    
   1724000   301.20667     -4.5347252      0              58.49945       2032.1514    
   1725000   300.31931     -6.1204511      0              56.728024      2081.2935    
   1726000   307.68118     -4.359022       0              60.030088      2139.4176    
   1727000   291.09254     -5.8309737      0              55.086595      2009.1886    
   1728000   297.67566     -4.4068895      0              57.888344      2096.1223    
   1729000   308.14867     -4.1623682      0              60.324575      2057.4156    
   1730000   295.04488     -5.7703479      0              55.974336      1993.9717    
   1731000   296.40384     -5.152856       0              56.87622       2077.8446    
   1732000   306.49878     -3.9816512      0              60.160014      2175.059     
   1733000   305.81597     -5.0219419      0              58.976832      2075.3283    
   1734000   297.72381     -3.4911259      0              58.814183      2175.9136    
   1735000   308.55423     -4.2653321      0              60.306483      2076.1496    
   1736000   289.65217     -5.8887926      0              54.727347      2069.4965    
   1737000   303.02789     -5.0376811      0              58.377624      2028.857     
   1738000   301.02221     -4.3643475      0              58.631224      2073.3121    
   1739000   295.59348     -5.5820504      0              56.277439      2079.6209    
   1740000   305.6565      -3.8419631      0              60.123438      2201.2875    
   1741000   302.51921     -3.7708618      0              59.537991      2091.7949    
   1742000   305.57146     -3.5856773      0              60.361927      2123.4135    
   1743000   301.43999     -4.2498636      0              58.833138      2100.8557    
   1744000   298.85769     -7.8531023      0              54.689497      1883.3346    
   1745000   295.83405     -4.6199906      0              57.289845      2108.6122    
   1746000   301.46628     -4.3460923      0              58.742411      2179.0646    
   1747000   301.14082     -4.3304665      0              58.689927      2097.6278    
   1748000   300.93444     -5.2985925      0              57.678613      2112.1767    
   1749000   299.9129      -3.2804185      0              59.483005      2084.837     
   1750000   310.16434     -4.6952397      0              60.213527      2088.0308    
   1751000   301.40682     -5.2188073      0              57.857253      2095.5806    
   1752000   300.9718      -4.2554217      0              58.729602      2168.1127    
   1753000   303.83721     -3.4021665      0              60.182507      2190.8684    
   1754000   307.68232     -5.3712026      0              59.018146      2134.4534    
   1755000   304.04202     -4.7487494      0              58.878786      2102.9901    
   1756000   285.73922     -3.9460418      0              55.851226      2026.8987    
   1757000   299.48821     -4.0700306      0              58.604519      2106.324     
   1758000   304.52751     -3.8089109      0              59.920223      2069.5598    
   1759000   309.18115     -4.0018953      0              60.701117      2037.6418    
   1760000   302.95929     -3.9423402      0              59.458609      2130.5802    
   1761000   289.35921     -2.7608868      0              57.793944      2092.5015    
   1762000   304.12466     -4.2235324      0              59.421297      2153.2349    
   1763000   302.89759     -3.4265736      0              59.961464      2084.7296    
   1764000   296.63955     -5.5295626      0              56.54884       2042.7023    
   1765000   297.4422      -5.7071357      0              56.53924       2095.0042    
   1766000   295.84018     -3.2009724      0              58.710145      2156.0919    
   1767000   302.3428      -4.5236292      0              58.748307      2041.433     
   1768000   296.76891     -4.4682385      0              57.637237      2026.3963    
   1769000   309.91007     -5.7162599      0              59.139294      2015.0801    
   1770000   295.59942     -5.9071909      0              55.953543      1954.059     
   1771000   306.83288     -4.743443       0              59.468141      2004.8285    
   1772000   301.82507     -4.3038447      0              58.859745      2099.3909    
   1773000   300.68457     -4.3156024      0              58.609311      2048.536     
   1774000   293.18436     -4.7033971      0              56.651932      2054.596     
   1775000   296.96975     -4.4177724      0              57.729733      2055.7975    
   1776000   302.06882     -5.3552375      0              57.859361      2177.8632    
   1777000   291.34342     -5.4730652      0              55.497005      2126.184     
   1778000   299.62055     -4.124858       0              58.577386      2100.544     
   1779000   310.43958     -4.360885       0              60.605481      2115.7896    
   1780000   300.18881     -4.5913325      0              58.229833      2064.5858    
   1781000   294.32158     -4.1505507      0              57.442767      2122.991     
   1782000   296.04557     -4.7608657      0              57.193234      2041.4678    
   1783000   305.96456     -4.2458933      0              59.783976      2115.5501    
   1784000   308.04657     -4.9774267      0              59.488149      2093.0593    
   1785000   298.52708     -3.9605161      0              58.512894      2170.8547    
   1786000   298.2256      -4.6099927      0              57.800328      2183.8098    
   1787000   308.09432     -4.0373163      0              60.438253      2100.4381    
   1788000   294.14613     -4.8573641      0              56.699236      2034.1652    
   1789000   300.41052     -6.3739487      0              56.493614      2135.378     
   1790000   287.25037     -5.2115777      0              54.901933      2037.3743    
   1791000   309.21292     -5.2979611      0              59.411698      2202.2498    
   1792000   298.65122     -3.9531762      0              58.546214      2242.9971    
   1793000   291.376       -4.4801799      0              56.496709      2126.4495    
   1794000   295.51952     -3.6592393      0              58.184774      2217.5364    
   1795000   292.15956     -3.9555234      0              57.185343      2112.638     
   1796000   307.34497     -4.6823841      0              59.636367      2096.6176    
   1797000   305.48235     -2.3338399      0              61.595116      2212.8268    
   1798000   309.06688     -4.7945057      0              59.884592      2093.119     
   1799000   303.28231     -3.5268031      0              59.941747      2137.985     
   1800000   292.32244     -4.1683308      0              57.006622      2152.8116    
   1801000   297.67392     -3.5565897      0              58.738279      2119.4006    
   1802000   305.82004     -4.8009642      0              59.198661      2179.4914    
   1803000   303.65757     -4.7123716      0              58.834709      2110.602     
   1804000   306.25507     -5.323933       0              58.766732      2068.2233    
   1805000   305.65883     -2.5117041      0              61.454183      2061.7546    
   1806000   307.42444     -3.833168       0              60.502214      2079.55      
   1807000   283.91924     -4.7071807      0              54.709217      2084.997     
   1808000   304.53322     -4.1423867      0              59.587942      2079.7145    
   1809000   295.2128      -5.1652528      0              56.614572      2092.0125    
   1810000   310.53291     -4.8055614      0              60.180336      2022.6175    
   1811000   296.97707     -5.833028       0              56.31601       2038.8333    
   1812000   299.0029      -3.8965679      0              58.676419      2040.8144    
   1813000   296.42117     -6.6029775      0              55.429726      1983.9493    
   1814000   292.68865     -5.5688197      0              55.68277       1996.4986    
   1815000   298.15316     -4.1756708      0              58.219489      2113.451     
   1816000   303.60429     -5.128807       0              58.407123      2033.119     
   1817000   304.12799     -4.034527       0              59.610998      2161.7842    
   1818000   304.33358     -2.0558248      0              61.632726      2151.5725    
   1819000   299.14232     -6.611265       0              55.990898      2090.602     
   1820000   298.24731     -5.6033231      0              56.811541      2109.4628    
   1821000   300.92443     -4.2425846      0              58.732525      2045.9262    
   1822000   291.81991     -3.6500368      0              57.41975       2048.8019    
   1823000   300.36237     -5.1899251      0              57.667561      2040.7995    
   1824000   295.48774     -6.5799167      0              55.257446      2035.1691    
   1825000   298.21204     -3.5251346      0              58.882347      2220.0374    
   1826000   299.22659     -2.6999123      0              59.919886      2099.1625    
   1827000   302.00857     -4.0061816      0              59.195808      2104.1806    
   1828000   308.88326     -4.8148222      0              59.825849      2103.5243    
   1829000   304.10919     -4.9458758      0              58.695715      2077.3481    
   1830000   296.21869     -3.6845984      0              58.305731      2142.4466    
   1831000   305.46099     -5.1114375      0              58.813049      2107.8912    
   1832000   296.83706     -3.7399377      0              58.379799      2108.6372    
   1833000   305.49615     -4.7893105      0              59.142533      1952.1572    
   1834000   300.15336     -4.0906879      0              58.723058      2118.6893    
   1835000   287.37193     -3.7110226      0              56.427926      2099.2017    
   1836000   305.49121     -4.8208198      0              59.109989      2088.9125    
   1837000   299.79173     -4.2087859      0              58.529282      2136.8953    
   1838000   297.11602     -4.1751629      0              58.002953      2047.1504    
   1839000   299.94076     -5.0867121      0              57.682544      2074.1547    
   1840000   299.76806     -4.3832116      0              58.349903      2034.1141    
   1841000   300.05018     -3.3138346      0              59.478318      2109.5622    
   1842000   295.37023     -3.2051882      0              58.607583      2139.3147    
   1843000   294.1103      -3.5059922      0              58.043111      2070.1065    
   1844000   289.00951     -5.0096709      0              55.471978      2047.1854    
   1845000   310.52297     -4.0279278      0              60.955889      2207.5025    
   1846000   293.33003     -4.0429112      0              57.342901      2168.4139    
   1847000   298.91308     -3.61327        0              58.94092       2189.4942    
   1848000   304.20484     -5.0420629      0              58.619545      2081.8645    
   1849000   313.5054      -5.4681903      0              60.139766      2010.578     
   1850000   305.49168     -3.5923524      0              60.338555      2214.8817    
   1851000   284.97418     -4.8288014      0              54.808365      2068.8293    
   1852000   306.4101      -5.2143084      0              58.9088        2202.9835    
   1853000   302.99767     -5.9167426      0              57.492239      2119.7105    
   1854000   304.0424      -5.2840819      0              58.343533      2053.7486    
   1855000   295.04386     -5.1876526      0              56.556819      2084.358     
   1856000   302.32687     -3.7124136      0              59.556188      2126.0412    
   1857000   297.53898     -4.5607814      0              57.705848      2126.0573    
   1858000   298.50536     -3.9395679      0              58.529299      2163.1296    
   1859000   318.09582     -4.1100202      0              62.458584      2036.4053    
   1860000   297.85248     -4.2506293      0              58.081606      2075.5945    
   1861000   288.91858     -4.147461       0              56.315158      2034.9675    
   1862000   311.84201     -2.6824944      0              62.57736       2165.1205    
   1863000   303.92701     -4.5504202      0              59.053047      2088.0319    
   1864000   303.68531     -5.734049       0              57.818837      2073.2855    
   1865000   296.59323     -4.387121       0              57.681589      2104.1936    
   1866000   292.48409     -4.2636985      0              56.945084      1998.2634    
   1867000   293.44029     -5.1744141      0              56.234474      2090.1457    
   1868000   300.99224     -5.0369552      0              57.952345      2108.1925    
   1869000   296.97614     -4.147785       0              58.001058      2149.8476    
   1870000   310.53969     -4.6363125      0              60.351003      2138.5482    
   1871000   292.05621     -4.9260136      0              56.193225      2049.494     
   1872000   298.92033     -5.2033729      0              57.352335      2014.8507    
   1873000   295.2578      -5.1180909      0              56.671152      2038.2937    
   1874000   300.3276      -4.0602372      0              58.789972      2178.5581    
   1875000   308.49225     -5.0930688      0              59.465775      2053.3474    
   1876000   299.62543     -4.8859343      0              57.817332      2086.5563    
   1877000   295.52021     -4.8830442      0              56.961113      2115.0554    
   1878000   307.18481     -4.0022913      0              60.282941      2071.5245    
   1879000   302.77274     -3.0624212      0              60.299488      2178.3924    
   1880000   291.32527     -3.7788473      0              57.187425      2009.9232    
   1881000   299.25618     -4.5596962      0              58.066296      2050.3281    
   1882000   297.1562      -4.3160864      0              57.870437      2028.2045    
   1883000   297.237       -4.5930558      0              57.610378      2116.7567    
   1884000   295.93479     -4.0802027      0              57.850714      2105.999     
   1885000   292.5619      -4.2144597      0              57.010606      2194.2282    
   1886000   294.98066     -3.2844491      0              58.446796      2090.8234    
   1887000   297.47616     -4.1720158      0              58.081468      2120.5413    
   1888000   287.66352     -4.3854741      0              55.814497      2157.2348    
   1889000   297.52148     -4.3394618      0              57.923504      2080.7119    
   1890000   297.2877      -4.0974603      0              58.116584      2093.7316    
   1891000   296.8433      -5.8761239      0              56.244919      2040.3068    
   1892000   286.87428     -4.9584775      0              55.076327      2095.0629    
   1893000   303.2565      -4.4627271      0              59.00042       2162.9393    
   1894000   308.33214     -5.1689858      0              59.356351      2059.1987    
   1895000   295.19589     -4.897231       0              56.879055      1963.19      
   1896000   294.04929     -3.7473803      0              57.788953      2148.2061    
   1897000   305.43545     -4.8506207      0              59.06852       2092.036     
   1898000   303.29467     -3.5784202      0              59.892715      2067.0456    
   1899000   296.45516     -3.5209003      0              58.518915      2054.0657    
   1900000   289.4013      -3.9634555      0              56.600185      2166.3648    
   1901000   301.06378     -5.2139433      0              57.790329      2076.9394    
   1902000   307.16019     -5.1631018      0              59.11698       2021.9733    
   1903000   296.03878     -5.7604987      0              56.192181      1956.2743    
   1904000   299.27857     -5.742736       0              56.887942      2139.348     
   1905000   298.51602     -5.7591176      0              56.711979      2059.5968    
   1906000   298.04534     -4.8383974      0              57.534199      2196.4709    
   1907000   297.30408     -4.869834       0              57.347636      2112.503     
   1908000   303.73053     -5.4039473      0              58.158401      2031.6555    
   1909000   298.44524     -3.9179519      0              58.538333      2187.0424    
   1910000   303.48401     -4.1864632      0              59.324295      2090.3935    
   1911000   312.99184     -6.6119138      0              58.888568      2118.9971    
   1912000   304.28893     -6.1993265      0              57.47988       1981.8153    
   1913000   298.82149     -4.2727722      0              58.262251      2048.6717    
   1914000   289.75132     -3.6998798      0              56.937009      2123.0627    
   1915000   301.39643     -3.8571185      0              59.216768      2117.1519    
   1916000   305.26713     -3.5759917      0              60.307925      2112.2015    
   1917000   294.14448     -5.9894495      0              55.566805      2063.3317    
   1918000   305.69804     -4.7104956      0              59.263598      2126.3528    
   1919000   311.88872     -3.6026537      0              61.666976      2208.9851    
   1920000   305.76145     -4.702487       0              59.284877      2165.3899    
   1921000   303.07895     -5.1080703      0              58.317921      2081.0045    
   1922000   296.74466     -5.0876998      0              57.012701      2110.844     
   1923000   294.8121      -5.9774288      0              55.71854       1923.6498    
   1924000   301.56075     -4.8229679      0              58.285305      2112.4849    
   1925000   309.7848      -3.1750178      0              61.654321      2059.3041    
   1926000   311.44179     -4.8302974      0              60.345803      2079.1327    
   1927000   293.32536     -4.7291689      0              56.655667      2027.9299    
   1928000   303.42018     -4.7248085      0              58.772593      2200.6906    
   1929000   300.24528     -4.9542096      0              57.878773      2114.2792    
   1930000   306.62229     -3.4250272      0              60.742487      2240.1057    
   1931000   293.69756     -4.6412735      0              56.821454      2141.9328    
   1932000   307.07826     -5.8913729      0              58.371561      1989.1136    
   1933000   296.41988     -4.8595642      0              57.172869      2085.124     
   1934000   302.47284     -4.9376884      0              58.36146       2088.7311    
   1935000   292.9729      -5.6950009      0              55.616076      2024.7589    
   1936000   297.65041     -5.7286859      0              56.561263      1940.1434    
   1937000   290.51116     -3.6597886      0              57.136114      2118.3762    
   1938000   293.57493     -4.9995959      0              56.437467      2119.6452    
   1939000   296.37269     -4.4288745      0              57.593684      2150.7013    
   1940000   296.51992     -5.8602443      0              56.193124      2062.698     
   1941000   302.70399     -3.7591363      0              59.588385      2151.6709    
   1942000   298.13849     -4.7624689      0              57.629622      2050.9362    
   1943000   298.44301     -4.8474609      0              57.608356      2038.2191    
   1944000   293.99133     -4.9818452      0              56.54236       1986.4137    
   1945000   293.34663     -5.2729264      0              56.116361      2158.4729    
   1946000   302.36874     -3.7400795      0              59.537285      2012.4065    
   1947000   293.26409     -4.2635062      0              57.108508      2112.6569    
   1948000   300.64539     -2.9942868      0              59.922428      2166.3327    
   1949000   288.12735     -5.600783       0              54.696255      2041.4931    
   1950000   300.08762     -5.1641049      0              57.635884      2069.949     
   1951000   291.60231     -4.310332       0              56.713917      2063.8511    
   1952000   291.84379     -3.9452352      0              57.129549      2162.4145    
   1953000   292.95351     -3.2350711      0              58.071946      2063.7942    
   1954000   299.3099      -3.9241948      0              58.713038      2120.5807    
   1955000   299.6858      -3.5142659      0              59.201634      2021.1867    
   1956000   300.76728     -3.5539943      0              59.388229      2097.0995    
   1957000   308.62354     -6.9511952      0              57.635125      1965.1079    
   1958000   300.46347     -3.6197604      0              59.258883      2125.9092    
   1959000   290.82364     -5.5188863      0              55.34241       2088.2742    
   1960000   291.5499      -5.3632723      0              55.650009      2090.6244    
   1961000   301.04361     -4.3318673      0              58.668184      2114.7857    
   1962000   289.68365     -3.5711448      0              57.051583      2118.9582    
   1963000   302.36443     -5.6476965      0              57.628765      2062.4823    
   1964000   294.88707     -4.1111267      0              57.600532      2155.3652    
   1965000   293.54727     -3.876157       0              57.555118      2100.5777    
   1966000   302.7923      -4.7360446      0              58.62996       2017.2117    
   1967000   301.06044     -5.6282375      0              57.375336      2093.7683    
   1968000   296.76679     -4.6286858      0              57.476345      2008.4659    
   1969000   312.38281     -3.7648978      0              61.608132      2151.8657    
   1970000   314.61999     -3.4983787      0              62.342831      2225.2123    
   1971000   298.38032     -4.1569257      0              58.285772      2070.13      
   1972000   296.20304     -4.4167125      0              57.570341      2014.7444    
   1973000   311.45255     -5.3968347      0              59.781519      1924.1198    
   1974000   302.63298     -4.6286901      0              58.703973      2059.9646    
   1975000   301.42805     -7.1597247      0              55.920778      2062.3082    
   1976000   297.50381     -5.5161682      0              56.743101      1974.0276    
   1977000   293.16205     -4.735016       0              56.615644      2108.1191    
   1978000   295.67719     -4.320534       0              57.556475      2117.2845    
   1979000   299.69263     -4.2570134      0              58.460315      2135.1498    
   1980000   305.73873     -5.548583       0              58.434027      2070.1881    
   1981000   309.30973     -5.1672564      0              59.562663      2041.7314    
   1982000   310.24436     -4.8897313      0              60.03578       2121.8265    
   1983000   304.61851     -4.6398961      0              59.108283      2088.1485    
   1984000   302.48318     -4.7503223      0              58.550991      2075.8976    
   1985000   298.74216     -4.3942874      0              58.124133      1945.9539    
   1986000   300.7004      -4.2251803      0              58.703046      2266.9203    
   1987000   293.74948     -5.9591452      0              55.514448      1949.8848    
   1988000   303.93702     -4.3075548      0              59.298005      2118.6474    
   1989000   292.95005     -5.6091009      0              55.697194      2114.7785    
   1990000   300.88643     -4.758693       0              58.208465      2104.4062    
   1991000   311.75115     -4.9499057      0              60.290936      2090.6793    
   1992000   299.75369     -3.4843693      0              59.245738      2085.5235    
   1993000   295.84334     -3.3587736      0              58.553005      2171.0396    
   1994000   304.03445     -4.6317342      0              58.994216      2089.2748    
   1995000   298.67364     -3.4878179      0              59.016263      2165.3833    
   1996000   302.38193     -5.8484413      0              57.431682      2058.8562    
   1997000   303.51173     -4.4994421      0              59.017117      2084.7413    
   1998000   301.51037     -2.3876279      0              60.710104      2190.3362    
   1999000   300.22616     -4.6236188      0              58.205364      2061.2074    
   2000000   304.3399      -3.8705632      0              59.819309      2099.9887    
   2000101   298.379       -5.3529394      0              57.089482      2000.31      
Loop time of 11947.1 on 16 procs for 2000000 steps with 1620 atoms

Performance: 7.232 ns/day, 3.319 hours/ns, 167.404 timesteps/s
99.7% CPU use with 16 MPI tasks x 1 OpenMP threads

MPI task timing breakdown:
Section |  min time  |  avg time  |  max time  |%varavg| %total
---------------------------------------------------------------
Pair    | 9250       | 9933       | 11334      | 541.8 | 83.14
Bond    | 0.97475    | 1.0126     | 1.0939     |   2.5 |  0.01
Neigh   | 14.537     | 14.898     | 15.359     |   7.5 |  0.12
Comm    | 553.05     | 1954.6     | 2638.9     |1223.0 | 16.36
Output  | 1.0769     | 1.0774     | 1.0787     |   0.0 |  0.01
Modify  | 23.868     | 24.977     | 25.718     |  11.7 |  0.21
Other   |            | 17.58      |            |       |  0.15

Nlocal:         101.25 ave         109 max          90 min
Histogram: 1 0 0 1 3 2 5 2 1 1
Nghost:        5090.75 ave        5159 max        5048 min
Histogram: 1 5 0 2 4 2 0 1 0 1
Neighs:        51688.9 ave       57649 max       46873 min
Histogram: 3 1 2 2 0 3 0 3 0 2

Total # of neighbors = 827022
Ave neighs/atom = 510.50741
Ave special neighs/atom = 0
Neighbor list builds = 10382
Dangerous builds = 0
comm_modify cutoff 27.58
compute myRDF all rdf 1129 cutoff 22.58
fix 2 all ave/time 1 1 1 c_myRDF[*] file ljg2_nvt_46rdf.rdf mode vector
run 0 pre yes post no
Generated 0 of 0 mixed pair_coeff terms from geometric mixing rule
WARNING: Compute rdf cutoff less than neighbor cutoff - forcing a needless neighbor list build (src/compute_rdf.cpp:179)
Neighbor list info ...
  update every 1 steps, delay 0 steps, check yes
  max neighbors/atom: 200000, page size: 2000000000
  master list distance cutoff = 27
  ghost atom cutoff = 27.58
  binsize = 13.5, bins = 4 5 4
  4 neighbor lists, perpetual/occasional/extra = 3 1 0
  (1) pair lj/cut, perpetual
      attributes: half, newton on
      pair build: half/bin/newton
      stencil: half/bin/3d
      bin: standard
  (2) pair gauss/cut, perpetual, copy from (1)
      attributes: half, newton on
      pair build: copy
      stencil: none
      bin: none
  (3) pair gauss/cut, perpetual, copy from (1)
      attributes: half, newton on
      pair build: copy
      stencil: none
      bin: none
  (4) compute rdf, occasional
      attributes: half, newton on, cut 24.58
      pair build: half/bin/newton
      stencil: half/bin/3d
      bin: standard
Per MPI rank memory allocation (min/avg/max) = 3.053e+04 | 3.053e+04 | 3.053e+04 Mbytes
   Step          Temp          E_pair         E_mol          TotEng         Press     
   2000101   298.379       -5.3529394      0              57.089482      2000.31      
Loop time of 1.15352e-05 on 16 procs for 0 steps with 1620 atoms

uncompute myRDF
unfix 2
write_data ljg2_nvt_46/ca_md.data nocoeff nofix
System init for write_data ...
Generated 0 of 0 mixed pair_coeff terms from geometric mixing rule
Neighbor list info ...
  update every 1 steps, delay 0 steps, check yes
  max neighbors/atom: 200000, page size: 2000000000
  master list distance cutoff = 27
  ghost atom cutoff = 27.58
  binsize = 13.5, bins = 4 5 4
  3 neighbor lists, perpetual/occasional/extra = 3 0 0
  (1) pair lj/cut, perpetual
      attributes: half, newton on
      pair build: half/bin/newton
      stencil: half/bin/3d
      bin: standard
  (2) pair gauss/cut, perpetual, copy from (1)
      attributes: half, newton on
      pair build: copy
      stencil: none
      bin: none
  (3) pair gauss/cut, perpetual, copy from (1)
      attributes: half, newton on
      pair build: copy
      stencil: none
      bin: none
Total wall time: 3:19:08
