region box block 0 52.794504272175 0 54.794296100667 0 45.195295323908
units metal
dimension 3
boundary p p p
atom_style full
create_box 1 box
Created orthogonal box = (0 0 0) to (52.794504 54.794296 45.195295)
  2 by 4 by 2 MPI processor grid
create_atoms 1 random 1620 49 box
Created 1620 atoms
  using lattice units in orthogonal box = (0 0 0) to (52.794504 54.794296 45.195295)
  create_atoms CPU = 0.002 seconds
mass 1 40.078
pair_style hybrid/overlay lj/cut 25 gauss/cut 25 gauss/cut 25
pair_coeff 1 1 lj/cut 0.009507177838705264 3.7584971993521488
pair_coeff 1 1 gauss/cut 1 -0.0597999248039827 5.991246456844763 0.601172550524922
pair_coeff 1 1 gauss/cut 2 0.0726183915985775 5.919659952808235 0.9307156951487607
run 1
WARNING: No fixes with time integration, atoms won't move (src/verlet.cpp:60)
Generated 0 of 0 mixed pair_coeff terms from geometric mixing rule
Neighbor list info ...
  update every 1 steps, delay 10 steps, check yes
  max neighbors/atom: 2000, page size: 100000
  master list distance cutoff = 27
  ghost atom cutoff = 27
  binsize = 13.5, bins = 4 5 4
  3 neighbor lists, perpetual/occasional/extra = 3 0 0
  (1) pair lj/cut, perpetual
      attributes: half, newton on
      pair build: half/bin/newton
      stencil: half/bin/3d
      bin: standard
  (2) pair gauss/cut, perpetual, copy from (1)
      attributes: half, newton on
      pair build: copy
      stencil: none
      bin: none
  (3) pair gauss/cut, perpetual, copy from (1)
      attributes: half, newton on
      pair build: copy
      stencil: none
      bin: none
Per MPI rank memory allocation (min/avg/max) = 6.989 | 6.996 | 7.003 Mbytes
   Step          Temp          E_pair         E_mol          TotEng         Press     
         0   0              1.9144552e+11  0              1.9144552e+11  9.3842268e+12
         1   0              1.9144552e+11  0              1.9144552e+11  9.3842268e+12
Loop time of 0.00695533 on 16 procs for 1 steps with 1620 atoms

Performance: 12.422 ns/day, 1.932 hours/ns, 143.775 timesteps/s
99.7% CPU use with 16 MPI tasks x 1 OpenMP threads

MPI task timing breakdown:
Section |  min time  |  avg time  |  max time  |%varavg| %total
---------------------------------------------------------------
Pair    | 0.0046409  | 0.0053554  | 0.0066445  |   0.7 | 77.00
Bond    | 4.73e-07   | 5.3937e-07 | 6.9e-07    |   0.0 |  0.01
Neigh   | 0          | 0          | 0          |   0.0 |  0.00
Comm    | 0.00021261 | 0.0015022  | 0.0022153  |   1.4 | 21.60
Output  | 5.7587e-05 | 5.851e-05  | 5.9449e-05 |   0.0 |  0.84
Modify  | 9.15e-07   | 1.0454e-06 | 1.276e-06  |   0.0 |  0.02
Other   |            | 3.759e-05  |            |       |  0.54

Nlocal:         101.25 ave         120 max          83 min
Histogram: 1 1 2 2 2 2 3 2 0 1
Nghost:        5063.56 ave        5138 max        4988 min
Histogram: 2 0 1 1 4 3 1 3 0 1
Neighs:          51643 ave       66407 max       44198 min
Histogram: 3 3 1 5 1 0 0 2 0 1

Total # of neighbors = 826288
Ave neighs/atom = 510.05432
Ave special neighs/atom = 0
Neighbor list builds = 0
Dangerous builds = 0
thermo 1000
neighbor 2.0 bin
neigh_modify every 1 delay 0 check yes one 200000 page 2000000000
minimize 0.0 1.0e-8 100 1000
Generated 0 of 0 mixed pair_coeff terms from geometric mixing rule
Neighbor list info ...
  update every 1 steps, delay 0 steps, check yes
  max neighbors/atom: 200000, page size: 2000000000
  master list distance cutoff = 27
  ghost atom cutoff = 27
  binsize = 13.5, bins = 4 5 4
  3 neighbor lists, perpetual/occasional/extra = 3 0 0
  (1) pair lj/cut, perpetual
      attributes: half, newton on
      pair build: half/bin/newton
      stencil: half/bin/3d
      bin: standard
  (2) pair gauss/cut, perpetual, copy from (1)
      attributes: half, newton on
      pair build: copy
      stencil: none
      bin: none
  (3) pair gauss/cut, perpetual, copy from (1)
      attributes: half, newton on
      pair build: copy
      stencil: none
      bin: none
Per MPI rank memory allocation (min/avg/max) = 2.29e+04 | 2.29e+04 | 2.29e+04 Mbytes
   Step          Temp          E_pair         E_mol          TotEng         Press     
         1   0              1.9144552e+11  0              1.9144552e+11  9.3842268e+12
       101   0             -49.106156      0             -49.106156      738.60678    
Loop time of 0.760561 on 16 procs for 100 steps with 1620 atoms

99.7% CPU use with 16 MPI tasks x 1 OpenMP threads

Minimization stats:
  Stopping criterion = max iterations
  Energy initial, next-to-last, final = 
      191445521838.344   -48.901288488582  -49.1061558673886
  Force two-norm initial, final = 5.4358683e+12 0.44701503
  Force max component initial, final = 2.6913359e+12 0.049177877
  Final line search alpha, max atom move = 1 0.049177877
  Iterations, force evaluations = 100 112

MPI task timing breakdown:
Section |  min time  |  avg time  |  max time  |%varavg| %total
---------------------------------------------------------------
Pair    | 0.49926    | 0.58809    | 0.71947    |   8.1 | 77.32
Bond    | 4.98e-05   | 5.1959e-05 | 5.7519e-05 |   0.0 |  0.01
Neigh   | 0.0063168  | 0.0074063  | 0.0088553  |   0.7 |  0.97
Comm    | 0.028975   | 0.16176    | 0.25149    |  15.6 | 21.27
Output  | 4.3355e-05 | 4.4026e-05 | 4.4833e-05 |   0.0 |  0.01
Modify  | 0          | 0          | 0          |   0.0 |  0.00
Other   |            | 0.003206   |            |       |  0.42

Nlocal:         101.25 ave         115 max          85 min
Histogram: 1 0 2 2 2 3 1 1 2 2
Nghost:        5057.94 ave        5115 max        4979 min
Histogram: 1 1 1 2 2 1 3 0 1 4
Neighs:        51639.2 ave       61855 max       44530 min
Histogram: 2 4 2 0 3 2 0 0 1 2

Total # of neighbors = 826227
Ave neighs/atom = 510.01667
Ave special neighs/atom = 0
Neighbor list builds = 6
Dangerous builds = 0
timestep 0.0005
fix 1 all nvt temp 300.0 300.0 $(100.0*dt)
fix 1 all nvt temp 300.0 300.0 0.050000000000000002776
fix removeMomentum all momentum 1 linear 1 1 1
dump 1 all custom 1000 ljg2_nvt_49/ca.traj id mol type mass x y z
dump_modify 1 sort id
run 2000000
Generated 0 of 0 mixed pair_coeff terms from geometric mixing rule
Per MPI rank memory allocation (min/avg/max) = 2.289e+04 | 2.289e+04 | 2.289e+04 Mbytes
   Step          Temp          E_pair         E_mol          TotEng         Press     
       101   0             -49.106156      0             -49.106156      738.60678    
      1000   154.02935     -45.26327       0             -13.029213      1166.2621    
      2000   291.86523     -11.372231      0              49.70704       1858.3354    
      3000   290.67493     -6.2148695      0              54.615305      1979.7971    
      4000   307.21993     -6.1291118      0              58.163471      2072.9366    
      5000   296.36198     -7.3147325      0              54.705584      1913.4662    
      6000   302.94694     -5.2766739      0              58.121691      2084.1734    
      7000   303.68032     -5.8214277      0              57.730414      2064.1471    
      8000   308.16082     -5.1971836      0              59.292301      2068.8649    
      9000   306.02179     -4.7069495      0              59.334896      2123.6384    
     10000   309.35937     -5.1049448      0              59.635364      2108.4307    
     11000   298.2999      -5.9264176      0              56.49945       2074.8845    
     12000   305.80502     -5.7468928      0              58.249589      2082.8055    
     13000   301.51091     -4.2125027      0              58.885342      2170.234     
     14000   298.80716     -6.2763399      0              56.255684      1992.7162    
     15000   305.47747     -5.7969         0              58.131035      2095.9779    
     16000   291.69931     -4.1022295      0              56.942318      2091.0613    
     17000   299.66165     -6.0657612      0              56.645085      1999.2966    
     18000   291.92317     -3.7656082      0              57.325788      2160.8636    
     19000   303.61695     -4.3545824      0              59.183997      2136.9965    
     20000   298.23293     -5.9358887      0              56.475964      2067.9548    
     21000   299.01529     -3.2157525      0              59.359828      2069.5168    
     22000   299.83069     -3.1517362      0              59.594485      2232.7041    
     23000   287.59054     -3.9487387      0              56.235959      2049.9549    
     24000   304.29016     -7.0201639      0              56.659299      2091.3253    
     25000   297.3622      -4.0277046      0              58.201929      2150.3972    
     26000   292.26936     -4.1868539      0              56.976992      2119.2302    
     27000   312.69129     -5.0522783      0              60.385308      2107.9065    
     28000   306.74458     -4.7271751      0              59.465929      2204.4688    
     29000   311.23279     -5.5324398      0              59.599923      2115.9301    
     30000   306.58019     -3.6639972      0              60.494706      2109.3727    
     31000   297.18298     -5.3227468      0              56.869382      2017.8309    
     32000   298.08233     -4.8559367      0              57.524401      2141.8515    
     33000   300.4387      -4.5998592      0              58.273602      2080.7233    
     34000   299.68881     -5.6065428      0              57.109986      2005.2041    
     35000   305.36983     -5.8600685      0              58.04534       2020.7542    
     36000   304.70969     -3.8061326      0              59.961126      2067.5402    
     37000   309.20379     -4.5330349      0              60.174716      2147.7845    
     38000   298.37786     -4.4754409      0              57.966742      2039.2378    
     39000   306.60479     -5.4854312      0              58.678421      2021.4217    
     40000   293.12845     -2.70799        0              58.635637      2023.3943    
     41000   304.47489     -5.0933234      0              58.624799      2117.3574    
     42000   290.67811     -6.275452       0              54.555388      2133.8196    
     43000   289.75786     -3.3083886      0              57.329869      2136.8121    
     44000   304.46132     -4.6041102      0              59.111171      2110.3275    
     45000   301.74137     -4.7052204      0              58.440852      2117.924     
     46000   298.44032     -4.516328       0              57.938927      2154.2444    
     47000   308.10284     -5.6510738      0              58.826278      2014.749     
     48000   295.62482     -5.7026747      0              56.163375      2072.3364    
     49000   305.48965     -4.5185449      0              59.411938      2138.5256    
     50000   311.17249     -4.094463       0              61.025282      2164.4715    
     51000   295.82039     -4.9682854      0              56.938691      2149.0055    
     52000   296.98787     -4.5379146      0              57.613383      2124.3075    
     53000   300.84383     -5.4316949      0              57.526548      2139.214     
     54000   299.54432     -3.0408703      0              59.645422      2162.8207    
     55000   298.42475     -3.7173702      0              58.734626      2134.0841    
     56000   302.70777     -4.9404433      0              58.40787       2098.0852    
     57000   287.20283     -6.5123614      0              53.591199      2024.9948    
     58000   293.38581     -5.8734493      0              55.524037      2022.0602    
     59000   304.46669     -5.628979       0              58.087428      2056.8027    
     60000   309.17973     -3.7189459      0              60.983768      2097.6266    
     61000   306.28314     -4.8182588      0              59.278279      2112.2554    
     62000   301.71559     -6.260216       0              56.880461      1984.7836    
     63000   299.15451     -5.3488773      0              57.255837      2127.3948    
     64000   309.0176      -3.9877421      0              60.681044      2143.4815    
     65000   299.82215     -3.8643399      0              58.880094      2141.9482    
     66000   298.96511     -4.5235906      0              58.041489      2087.6008    
     67000   298.13025     -4.5029668      0              57.887399      2069.0561    
     68000   294.57852     -3.8675041      0              57.779584      2013.5839    
     69000   293.40808     -3.5242514      0              57.877896      2218.4667    
     70000   305.41316     -4.8476739      0              59.066802      2166.7853    
     71000   300.85292     -3.1900953      0              59.770049      2121.8426    
     72000   290.14342     -4.1239054      0              56.595038      2045.7037    
     73000   297.08573     -5.8518593      0              56.319917      1988.6309    
     74000   304.05045     -5.3286562      0              58.300644      2022.1825    
     75000   297.57538     -3.8836056      0              58.390641      2171.2775    
     76000   304.15411     -4.2294226      0              59.421569      2128.5073    
     77000   295.96573     -5.1551354      0              56.782256      2102.3568    
     78000   300.99457     -3.2973117      0              59.692476      2076.2074    
     79000   296.67593     -2.963216       0              59.1228        2211.6388    
     80000   303.19734     -4.2158506      0              59.234916      2129.9026    
     81000   303.8777      -4.327655       0              59.265492      2126.4271    
     82000   289.62918     -4.7912807      0              55.820048      2031.1635    
     83000   302.75302     -5.0109065      0              58.346876      1991.124     
     84000   293.91045     -3.4433298      0              58.06395       2175.5261    
     85000   298.97965     -4.2971419      0              58.270979      2053.2782    
     86000   308.66502     -4.7746353      0              59.820366      2050.9909    
     87000   291.52473     -3.823621       0              57.184394      2279.3068    
     88000   310.58897     -4.6785147      0              60.319115      2014.8762    
     89000   291.60949     -4.5761199      0              56.449631      2079.9334    
     90000   306.38403     -3.9351037      0              60.182549      2177.5825    
     91000   308.39156     -5.331124       0              59.206649      2045.2699    
     92000   289.64061     -4.8136039      0              55.800117      2126.5338    
     93000   297.4297      -4.4866705      0              57.75709       2045.429     
     94000   301.27359     -3.2478819      0              59.800298      2122.7595    
     95000   299.36572     -5.7801313      0              56.868785      1976.2       
     96000   303.95773     -4.2086518      0              59.401243      2201.7264    
     97000   288.62985     -4.6740797      0              55.728118      2076.6904    
     98000   303.00818     -4.8637959      0              58.547386      2146.9762    
     99000   312.33197     -4.4627148      0              60.899675      2098.7387    
    100000   315.83101     -4.186209       0              61.908433      2098.2135    
    101000   296.60439     -5.4054346      0              56.665611      2064.34      
    102000   297.3203      -3.6780538      0              58.542812      2089.9097    
    103000   294.71695     -6.0273258      0              55.648731      2051.9158    
    104000   298.73555     -3.3445745      0              59.172464      2122.2082    
    105000   293.18341     -3.6729435      0              57.682186      2162.1495    
    106000   307.44301     -4.6841929      0              59.655074      2112.0837    
    107000   301.7063      -5.2620819      0              57.876651      2010.647     
    108000   290.44597     -4.14592        0              56.63634       2038.2367    
    109000   295.22501     -5.5701096      0              56.212271      2079.1523    
    110000   301.74647     -5.0621367      0              58.085004      2123.6022    
    111000   301.30136     -6.6386585      0              56.415331      2025.2769    
    112000   316.35959     -4.0772589      0              62.128001      2155.508     
    113000   304.76775     -5.1232642      0              58.656146      2087.7987    
    114000   299.22752     -3.8818763      0              58.738118      2039.5332    
    115000   298.16253     -3.3050876      0              59.092034      2246.3647    
    116000   306.84728     -4.1613518      0              60.053246      2087.8681    
    117000   304.20998     -4.6486546      0              59.014029      2200.3776    
    118000   303.02603     -4.9446674      0              58.470249      2132.7722    
    119000   307.10767     -3.828474       0              60.440615      2101.1441    
    120000   289.92733     -5.4842821      0              55.189441      2112.3055    
    121000   299.46633     -4.863986       0              57.805984      2207.2525    
    122000   300.09862     -3.7846966      0              59.017593      2037.4758    
    123000   296.28185     -4.7468759      0              57.256672      2113.6785    
    124000   290.85627     -6.4540647      0              54.41406       1990.3736    
    125000   294.02803     -6.0759627      0              55.455922      2066.0136    
    126000   290.69265     -6.0215674      0              54.812315      2049.1474    
    127000   300.15831     -6.0795771      0              56.735206      2089.509     
    128000   312.61993     -5.3518635      0              60.070789      2123.666     
    129000   310.42592     -5.3577729      0              59.605735      2083.9743    
    130000   295.19437     -3.9547781      0              57.82119       2124.637     
    131000   299.28537     -2.2919037      0              60.340196      2208.3625    
    132000   294.20433     -4.6756642      0              56.893115      2036.6521    
    133000   294.3492      -2.9480607      0              58.651037      2175.6566    
    134000   300.98205     -2.4977269      0              60.489441      2108.1987    
    135000   307.88126     -4.0101985      0              60.420781      2141.8372    
    136000   302.43462     -4.5638169      0              58.727334      2179.2685    
    137000   295.51101     -4.674938       0              57.167294      2019.1798    
    138000   300.24647     -3.9521557      0              58.881076      2105.7415    
    139000   301.77762     -3.3593774      0              59.794282      2072.1832    
    140000   304.94507     -3.2619253      0              60.554593      2229.4019    
    141000   304.78809     -5.419667       0              58.364         2070.3204    
    142000   297.95777     -3.9905568      0              58.363714      2155.2701    
    143000   304.86819     -6.6758026      0              57.124627      2004.0347    
    144000   300.46875     -4.5885955      0              58.291154      2030.9429    
    145000   300.03413     -2.3044606      0              60.484334      2214.6208    
    146000   310.6009      -4.8203632      0              60.179762      2017.6653    
    147000   298.62263     -5.818303       0              56.675105      2021.0008    
    148000   300.81853     -4.4088787      0              58.544069      2071.7316    
    149000   306.37356     -3.5524881      0              60.562974      2058.0527    
    150000   302.97941     -1.5091293      0              61.896031      2263.3154    
    151000   297.9324      -5.6876896      0              56.661271      2120.3167    
    152000   299.77102     -5.0199083      0              57.713824      2005.6703    
    153000   312.73882     -3.9245778      0              61.522956      2158.8702    
    154000   287.88206     -5.4731289      0              54.772576      2029.6198    
    155000   299.71886     -5.7559343      0              56.966883      1984.7842    
    156000   300.82402     -4.7119148      0              58.242183      2090.6892    
    157000   295.08977     -3.9008469      0              57.853231      2101.9064    
    158000   304.20132     -3.7113665      0              59.949504      2121.1338    
    159000   294.81156     -5.7892442      0              55.906612      1986.1589    
    160000   296.063       -4.64427        0              57.313477      2113.0026    
    161000   303.1139      -4.873969       0              58.559337      2182.8289    
    162000   286.409       -5.2417519      0              54.695683      2072.9631    
    163000   305.5485      -5.2474306      0              58.695369      2055.1598    
    164000   298.97147     -5.3503512      0              57.216058      2034.0983    
    165000   301.35199     -5.5235978      0              57.540989      2003.41      
    166000   304.78239     -4.3820315      0              59.400443      2159.0584    
    167000   306.43182     -5.3484326      0              58.77922       2023.3856    
    168000   299.74782     -4.3841434      0              58.344735      2125.845     
    169000   288.72111     -4.6084377      0              55.812858      1994.6082    
    170000   296.99151     -4.1819654      0              57.970094      2088.1525    
    171000   309.75901     -3.1699324      0              61.65401       2234.5031    
    172000   287.32147     -3.1011982      0              57.02719       2198.0592    
    173000   295.43523     -4.3940916      0              57.432281      2083.9723    
    174000   291.4431      -3.1084345      0              57.882497      2118.6295    
    175000   301.03608     -3.2771343      0              59.721341      2138.3866    
    176000   297.91799     -4.9756848      0              57.37026       2079.5625    
    177000   308.25118     -4.719394       0              59.789001      2159.8927    
    178000   297.41991     -3.8474508      0              58.39426       2106.5325    
    179000   295.19985     -4.6012352      0              57.175879      1927.3734    
    180000   287.30321     -3.3682304      0              56.756338      2092.9327    
    181000   294.2606      -4.2203969      0              57.360159      2099.0046    
    182000   297.86781     -5.5812583      0              56.754185      1984.6771    
    183000   311.01834     -5.8557745      0              59.231709      2014.4237    
    184000   296.92897     -4.9510171      0              57.187955      2072.4606    
    185000   300.66204     -4.8069948      0              58.113205      2093.6909    
    186000   291.71086     -5.0136703      0              56.033295      2053.2017    
    187000   295.31997     -4.7297854      0              57.072468      2062.5839    
    188000   304.34648     -6.3171929      0              57.374057      1975.929     
    189000   302.52031     -4.307936       0              59.001147      2206.6363    
    190000   293.78325     -4.0946166      0              57.386043      2175.482     
    191000   296.27954     -5.3311524      0              56.67191       2128.9008    
    192000   290.05313     -4.2562584      0              56.443792      1985.1331    
    193000   295.37231     -5.0267445      0              56.786462      1931.7786    
    194000   296.65079     -3.9100152      0              58.170741      2053.6394    
    195000   307.88969     -3.4076003      0              61.025144      2059.6       
    196000   307.23108     -3.2158316      0              61.079085      2156.6181    
    197000   294.56587     -6.0830881      0              55.561352      1963.0333    
    198000   300.3552      -6.8129821      0              56.043004      2074.3454    
    199000   304.00355     -4.4802883      0              59.139196      2088.2041    
    200000   292.38115     -5.2801753      0              55.907063      2042.7786    
    201000   305.55543     -4.7223385      0              59.22191       2104.6858    
    202000   300.75112     -4.1585323      0              58.780309      2130.3402    
    203000   295.59882     -5.0460937      0              56.814515      2114.0008    
    204000   292.30553     -4.1632366      0              57.008178      2062.7422    
    205000   298.61905     -4.2853539      0              58.207304      2114.0665    
    206000   303.00425     -5.1623821      0              58.247977      2066.8745    
    207000   296.82926     -4.5515417      0              57.566563      2025.1134    
    208000   303.22003     -4.9692417      0              58.486273      2102.5509    
    209000   285.52345     -5.4053006      0              54.346812      2019.6614    
    210000   314.36702     -5.18415        0              60.604121      2117.2761    
    211000   298.77082     -3.9605474      0              58.563871      2093.1378    
    212000   291.58431     -3.7211719      0              57.29931       2225.6799    
    213000   306.3037      -3.9845909      0              60.116251      2206.6402    
    214000   308.23521     -4.9623088      0              59.542744      2036.7193    
    215000   306.97199     -4.5536724      0              59.687024      2150.5988    
    216000   299.14009     -4.2713288      0              58.330368      2105.8645    
    217000   307.43786     -6.9011682      0              57.437021      2061.2809    
    218000   299.31184     -4.5045944      0              58.133044      2126.8276    
    219000   303.54809     -5.1423928      0              58.381776      2048.3437    
    220000   299.18295     -3.7276833      0              58.882984      2120.3692    
    221000   295.97025     -4.5563034      0              57.382035      2154.61      
    222000   307.67048     -4.5502172      0              59.836654      2076.7035    
    223000   308.9231      -4.6404247      0              60.008584      2065.9325    
    224000   302.62278     -3.4432119      0              59.887315      2127.3868    
    225000   295.34978     -2.9692812      0              58.839211      2197.2791    
    226000   299.30436     -5.2189458      0              57.417129      2033.9963    
    227000   308.71714     -5.2677143      0              59.338193      2022.7224    
    228000   302.19025     -4.5234127      0              58.716597      2054.7472    
    229000   303.88922     -4.8874213      0              58.708136      2100.5198    
    230000   291.94866     -5.8003954      0              55.296336      2039.2296    
    231000   297.79497     -5.0850876      0              57.235113      2103.9092    
    232000   293.46437     -5.3313428      0              56.082585      2015.9771    
    233000   301.60684     -4.1958292      0              58.922091      2146.905     
    234000   304.97906     -2.6179855      0              61.205647      2219.2372    
    235000   307.69241     -4.8126706      0              59.578789      2102.1819    
    236000   308.54398     -4.0644071      0              60.505263      2138.8523    
    237000   304.58494     -4.3998289      0              59.341325      2141.7206    
    238000   295.98462     -5.0718654      0              56.869479      2134.0723    
    239000   295.03284     -4.0343666      0              57.707796      2136.5152    
    240000   306.72273     -4.9569243      0              59.231609      2111.0385    
    241000   296.20993     -4.0163116      0              57.972185      2145.5683    
    242000   303.13042     -4.4097914      0              59.026972      2032.3667    
    243000   297.72331     -3.4284693      0              58.876736      2154.0777    
    244000   298.87779     -4.0426316      0              58.504174      2096.8031    
    245000   297.6018      -5.0682415      0              57.211534      2111.5976    
    246000   297.61083     -5.7547941      0              56.526871      2014.4389    
    247000   292.64796     -3.4449847      0              57.798091      2078.3334    
    248000   298.60121     -5.0492936      0              57.439632      2103.7093    
    249000   292.26511     -4.7774979      0              56.385457      2107.6362    
    250000   305.26462     -5.4750955      0              58.408295      2077.6833    
    251000   300.47209     -3.5834758      0              59.296971      2160.2108    
    252000   291.06168     -3.634057       0              57.277053      2124.0526    
    253000   293.82519     -5.1844551      0              56.304981      2062.2574    
    254000   299.65855     -4.1164216      0              58.593775      2110.6621    
    255000   303.501       -5.1623238      0              58.351991      2161.7931    
    256000   301.99172     -4.6222147      0              58.576248      2189.9266    
    257000   295.4646      -4.656374       0              57.176146      2113.3798    
    258000   303.0384      -4.7118127      0              58.705693      2086.4426    
    259000   301.11594     -4.3265248      0              58.688663      2065.2379    
    260000   299.74339     -4.9792009      0              57.748749      2219.0683    
    261000   314.10262     -5.3475036      0              60.385435      2129.1968    
    262000   298.36161     -4.321984       0              58.116799      2030.1393    
    263000   299.34717     -4.1724932      0              58.47254       2143.3543    
    264000   295.46668     -3.3612258      0              58.471728      2046.1619    
    265000   303.79387     -3.4932675      0              60.082337      2163.0767    
    266000   301.50855     -4.6650664      0              58.432284      2133.4324    
    267000   301.89334     -5.644826       0              57.533049      2110.2087    
    268000   290.31807     -4.442352       0              56.313142      2132.8967    
    269000   304.11443     -6.3509928      0              57.291695      1986.7224    
    270000   299.50896     -5.5060523      0              57.172839      2019.1584    
    271000   313.60201     -4.1408092      0              61.487365      2080.8295    
    272000   296.925       -5.5921534      0              56.545988      2005.6442    
    273000   296.98602     -4.5817519      0              57.569158      2016.7444    
    274000   301.9666      -6.1465943      0              57.046612      2062.8031    
    275000   306.84944     -5.5143777      0              58.700671      2191.2426    
    276000   312.33847     -5.0374304      0              60.32632       2184.2819    
    277000   298.64199     -6.5888524      0              55.908605      2029.492     
    278000   299.03232     -4.6512304      0              57.927914      2087.0317    
    279000   292.79775     -3.772617       0              57.501805      2123.0056    
    280000   297.6959      -5.6002039      0              56.699266      1967.2265    
    281000   288.51954     -4.1971886      0              56.181923      2150.215     
    282000   299.35264     -3.7774289      0              58.868748      2033.6979    
    283000   302.26104     -4.4647555      0              58.79007       2008.7761    
    284000   296.57297     -5.4198559      0              56.644615      1970.1215    
    285000   295.22914     -4.0055493      0              57.777696      2071.2088    
    286000   296.80918     -5.3273319      0              56.78657       1992.9135    
    287000   305.63199     -5.1172517      0              58.84302       2033.7769    
    288000   285.10481     -5.3261335      0              54.338369      2007.7189    
    289000   304.40015     -2.8934517      0              60.80903       2152.1831    
    290000   293.37068     -3.7583281      0              57.635993      2137.5005    
    291000   305.82256     -4.9967934      0              59.003359      1962.8053    
    292000   299.32037     -4.6039774      0              58.035447      2065.0487    
    293000   303.80377     -3.4653896      0              60.112286      2066.9688    
    294000   290.45523     -4.917088       0              55.86711       1960.3688    
    295000   288.43569     -5.7557523      0              54.605813      1982.403     
    296000   305.56389     -5.9610443      0              57.984976      1979.4916    
    297000   297.5231      -4.462672       0              57.800634      2084.8382    
    298000   312.84152     -5.8708349      0              59.598191      2123.6107    
    299000   287.91028     -3.7220185      0              56.529591      2101.5294    
    300000   301.73048     -4.2781922      0              58.865601      2041.8876    
    301000   304.27028     -3.9807289      0              59.694574      2119.2752    
    302000   302.39307     -4.4005109      0              58.881944      2215.9278    
    303000   306.44526     -5.6456869      0              58.484779      2114.1259    
    304000   302.19562     -3.1324376      0              60.108697      2230.1224    
    305000   300.66355     -3.4090895      0              59.511425      2113.8387    
    306000   290.1353      -5.1529391      0              55.564306      2065.2214    
    307000   304.13437     -4.3407638      0              59.306098      2176.5965    
    308000   304.82432     -5.4783011      0              58.312947      2062.2393    
    309000   296.90923     -4.0157729      0              58.119067      2181.9683    
    310000   291.18262     -4.985367       0              55.951053      2003.2858    
    311000   305.21528     -3.1151272      0              60.757939      2180.8375    
    312000   305.36292     -4.6544747      0              59.249489      2114.8996    
    313000   311.24639     -4.1085302      0              61.026679      2102.8271    
    314000   300.78762     -3.7093961      0              59.237084      2195.896     
    315000   288.0582      -3.1188269      0              57.163739      2098.7269    
    316000   300.31732     -3.7650207      0              59.083037      2103.1527    
    317000   301.03517     -3.6309873      0              59.367297      2123.0842    
    318000   307.62183     -3.9795766      0              60.397113      2148.44      
    319000   302.4884      -4.9828592      0              58.319547      2207.0387    
    320000   299.63873     -4.6704027      0              58.035647      2066.5039    
    321000   294.49572     -5.5225795      0              56.10718       2064.1479    
    322000   304.51588     -4.0842931      0              59.642406      2156.2108    
    323000   291.21213     -4.9882391      0              55.954357      2053.538     
    324000   299.68649     -6.3005512      0              56.415493      2080.0936    
    325000   293.80152     -4.1980841      0              57.286399      2178.8696    
    326000   305.54062     -4.2145809      0              59.726569      2185.1067    
    327000   306.17987     -6.5769488      0              57.497979      2059.9932    
    328000   287.48956     -4.600008       0              55.563557      2111.0419    
    329000   297.184       -4.82062        0              57.371723      1965.1496    
    330000   293.9091      -4.5332722      0              56.973724      2007.176     
    331000   298.9387      -4.9151923      0              57.64436       2220.1308    
    332000   306.66007     -3.4363081      0              60.739112      2209.4639    
    333000   305.93303     -4.3707667      0              59.652503      2071.7107    
    334000   291.41972     -5.9371555      0              55.048882      1923.8695    
    335000   305.56501     -5.8412004      0              58.105053      2064.7558    
    336000   295.705       -5.3753121      0              56.507516      2065.8993    
    337000   292.95829     -5.0681917      0              56.239827      2038.1933    
    338000   293.81109     -4.1691184      0              57.317367      2104.8434    
    339000   296.08262     -4.2315067      0              57.730346      2059.7054    
    340000   301.34504     -4.0065156      0              59.056616      2111.2187    
    341000   295.71526     -4.7946162      0              57.09036       2094.4793    
    342000   292.59501     -5.45558        0              55.776413      2027.0212    
    343000   292.78524     -4.0151807      0              57.256623      2059.7868    
    344000   297.86802     -5.4742033      0              56.861286      1938.8811    
    345000   297.07641     -4.9550465      0              57.214779      2103.9202    
    346000   297.23822     -4.2959163      0              57.907773      2090.5201    
    347000   293.64203     -3.9741344      0              57.476971      2023.0682    
    348000   303.343       -3.6153617      0              59.865887      2122.0223    
    349000   303.68996     -4.6641771      0              58.889682      2079.947     
    350000   302.10551     -4.4708948      0              58.751383      2022.906     
    351000   289.25609     -3.6064065      0              56.926844      2013.2418    
    352000   302.84808     -5.9245485      0              57.453128      1978.3154    
    353000   304.68122     -4.0203443      0              59.740958      2032.5946    
    354000   302.29467     -3.195161       0              60.066703      2121.1369    
    355000   298.86715     -4.8107906      0              57.733788      2147.7743    
    356000   300.42553     -2.4886905      0              60.382015      2148.9283    
    357000   300.70806     -6.2524959      0              56.677333      1916.0973    
    358000   309.927       -5.8292554      0              59.029841      2066.0472    
    359000   296.81406     -5.5473674      0              56.567555      2038.6751    
    360000   298.67808     -3.9704868      0              58.534525      2079.9785    
    361000   305.11585     -4.9309026      0              58.921354      2021.2906    
    362000   301.43208     -4.2317174      0              58.84963       2094.8369    
    363000   297.73401     -3.6757853      0              58.631659      2146.4869    
    364000   305.13246     -4.5144409      0              59.341293      2086.3357    
    365000   302.45275     -3.8579194      0              59.437024      1986.747     
    366000   297.70448     -4.8829904      0              57.418273      2103.4475    
    367000   304.71294     -3.3855416      0              60.382399      2140.179     
    368000   302.39302     -4.7888651      0              58.49358       2046.9093    
    369000   299.45953     -5.5292292      0              57.139317      2084.2895    
    370000   297.56981     -4.8194234      0              57.453658      2081.8058    
    371000   305.97002     -4.8974627      0              59.133549      2108.1414    
    372000   306.1919      -3.9230024      0              60.154442      2224.2355    
    373000   298.28341     -4.062708       0              58.35971       2114.7535    
    374000   295.1219      -4.9631882      0              56.797613      2097.1468    
    375000   297.0133      -4.6698887      0              57.486731      2150.8857    
    376000   298.90579     -3.4113332      0              59.141331      2101.215     
    377000   309.20112     -3.1440787      0              61.563113      2283.501     
    378000   298.73547     -4.7622148      0              57.754807      2142.4806    
    379000   295.33384     -5.159542       0              56.645614      2110.8525    
    380000   306.47329     -6.0238604      0              58.112472      1996.2057    
    381000   297.38548     -2.3131959      0              59.921311      2099.9739    
    382000   311.52061     -3.9390248      0              61.253572      2044.8333    
    383000   301.35222     -2.904553       0              60.160082      2125.2417    
    384000   299.00247     -3.7200001      0              58.852898      2176.9087    
    385000   300.34309     -4.3461569      0              58.507295      2051.0814    
    386000   306.07992     -5.273127       0              58.780884      1991.4102    
    387000   299.87638     -3.1208218      0              59.634961      2238.3449    
    388000   300.57842     -4.3409437      0              58.561756      2121.1759    
    389000   308.26668     -4.4394174      0              60.072221      2045.2678    
    390000   294.28082     -3.2681363      0              58.316651      2087.469     
    391000   304.28958     -3.3317265      0              60.347616      2104.4752    
    392000   307.06968     -5.3453055      0              58.915834      2021.8542    
    393000   305.35092     -5.2130061      0              58.688446      2001.7867    
    394000   300.11822     -5.0776539      0              57.728739      2125.9005    
    395000   291.18611     -3.785573       0              57.151577      2108.4982    
    396000   304.60185     -4.975009       0              58.769682      2067.9453    
    397000   314.05306     -4.7220261      0              61.000541      2067.6482    
    398000   298.83276     -4.4793755      0              58.058005      2217.1625    
    399000   303.16134     -4.1230555      0              59.320178      2131.8193    
    400000   294.34988     -2.6108312      0              58.988407      2215.455     
    401000   303.4988      -3.7220705      0              59.791782      2043.6893    
    402000   298.4088      -4.6816818      0              57.766976      2144.1615    
    403000   292.01245     -4.9478115      0              56.162269      1994.7218    
    404000   293.83082     -5.7232282      0              55.767386      2102.9108    
    405000   299.37503     -6.531763       0              56.119101      2089.2904    
    406000   298.7053      -5.3579725      0              57.152734      2009.0085    
    407000   292.67655     -4.9037507      0              56.345308      2169.8722    
    408000   301.63279     -4.3265197      0              58.79683       2131.6187    
    409000   309.67592     -4.1327346      0              60.673819      2135.5653    
    410000   299.30601     -5.8597996      0              56.77662       2003.1309    
    411000   299.85133     -4.9480423      0              57.802498      2019.652     
    412000   297.52572     -3.613481       0              58.650373      2133.9289    
    413000   302.12255     -4.6630586      0              58.562785      2240.5454    
    414000   305.0381      -4.0040245      0              59.831963      2228.4449    
    415000   302.70516     -6.0363869      0              57.311379      1915.4485    
    416000   299.38626     -4.825693       0              57.827521      1988.9433    
    417000   306.39207     -4.9537711      0              59.165564      2195.8155    
    418000   299.94548     -4.119316       0              58.650927      2052.4627    
    419000   304.50124     -4.2292386      0              59.494397      2155.5876    
    420000   301.85802     -4.4752371      0              58.695247      2131.6684    
    421000   297.28811     -4.5642737      0              57.649855      2032.9276    
    422000   301.49765     -5.7042574      0              57.390812      2015.9955    
    423000   298.36931     -5.7415223      0              56.698872      2035.0411    
    424000   300.13085     -4.2034018      0              58.605634      2087.8067    
    425000   301.40124     -4.7747879      0              58.300104      2076.8085    
    426000   292.5882      -5.067272       0              56.163298      2049.8973    
    427000   301.14991     -4.8966494      0              58.125648      1969.6531    
    428000   295.94913     -4.4562027      0              57.477715      2066.3697    
    429000   311.38814     -4.5672588      0              60.597614      2123.9227    
    430000   306.90042     -6.2140906      0              58.011629      2013.8384    
    431000   298.27172     -4.1912651      0              58.228706      2097.6353    
    432000   296.63546     -3.8717842      0              58.205764      2047.1879    
    433000   305.56492     -2.6870069      0              61.259229      2160.9621    
    434000   302.63007     -4.3797891      0              58.952263      2053.794     
    435000   300.83108     -4.6411054      0              58.314469      2068.5399    
    436000   281.28134     -4.2056214      0              54.658736      2002.5298    
    437000   297.52912     -3.0238445      0              59.240722      2107.4186    
    438000   304.82941     -5.4812607      0              58.311052      2008.4892    
    439000   304.54604     -5.3586708      0              58.374342      2056.0441    
    440000   303.30533     -6.5309674      0              56.942398      2026.8764    
    441000   299.80195     -5.2838278      0              57.456378      2118.4265    
    442000   304.25172     -5.6561592      0              58.015259      2075.9555    
    443000   287.91216     -3.6124497      0              56.639555      2107.7627    
    444000   295.96674     -4.9168826      0              57.02072       2082.6331    
    445000   297.58612     -5.410312       0              56.866182      2074.6918    
    446000   298.72981     -4.742914       0              57.772922      2042.2394    
    447000   305.05931     -4.6524743      0              59.187951      2059.9074    
    448000   296.98196     -4.15872        0              57.991341      2120.8358    
    449000   304.91138     -3.7562936      0              60.053175      2266.1752    
    450000   284.04578     -4.8380028      0              54.604875      2029.3527    
    451000   303.72279     -6.2167964      0              57.343933      2036.4279    
    452000   296.16928     -5.4801893      0              56.499799      2103.8195    
    453000   301.50458     -5.2335983      0              57.862922      2131.2641    
    454000   299.73097     -5.1691023      0              57.55625       2106.7061    
    455000   308.31855     -5.7097583      0              58.812736      1945.0098    
    456000   295.08923     -4.2029787      0              57.550986      2081.617     
    457000   300.96677     -3.7071667      0              59.276803      2110.0771    
    458000   291.70929     -3.0024899      0              58.044149      2100.2014    
    459000   295.37209     -4.3181259      0              57.495035      2104.8293    
    460000   289.94166     -5.3810101      0              55.295711      2029.7622    
    461000   306.0597      -4.1699879      0              59.879791      2056.8794    
    462000   301.4697      -3.5077295      0              59.58149       2153.2453    
    463000   295.74283     -5.2713764      0              56.619369      2059.4355    
    464000   293.70055     -4.0921945      0              57.371158      2111.0393    
    465000   289.40447     -5.133057       0              55.431246      2098.6284    
    466000   304.39952     -4.436298       0              59.266051      2186.4394    
    467000   301.24619     -4.4196649      0              58.62278       2111.7983    
    468000   301.05903     -4.7129636      0              58.290314      2084.6762    
    469000   301.67234     -4.4415838      0              58.690042      2187.9125    
    470000   295.39038     -4.170051       0              57.646936      2043.5051    
    471000   295.00037     -4.6286949      0              57.106674      2097.2627    
    472000   296.80688     -3.7760655      0              58.337356      2193.3991    
    473000   302.01143     -6.1728853      0              57.029703      2143.2677    
    474000   296.44273     -3.8899584      0              58.147257      2116.0397    
    475000   300.3568      -5.8322542      0              57.024066      2111.4355    
    476000   305.73374     -4.8451607      0              59.136405      2161.4635    
    477000   302.65824     -3.2872764      0              60.050672      2021.7704    
    478000   296.08076     -4.9048064      0              57.056658      2079.7644    
    479000   307.1427      -2.9478986      0              61.328523      2263.7483    
    480000   302.90122     -2.9591507      0              60.429647      2106.4508    
    481000   302.98733     -4.6730537      0              58.733764      2026.0951    
    482000   302.42365     -2.5333977      0              60.755458      2064.0888    
    483000   307.93893     -3.2815403      0              61.16151       2166.038     
    484000   291.14642     -3.1902248      0              57.73862       2204.8747    
    485000   303.30568     -5.1158613      0              58.357578      2124.6467    
    486000   301.03949     -4.1091041      0              58.890086      2103.7666    
    487000   296.06948     -4.44017        0              57.518935      2143.7379    
    488000   297.21794     -3.296164       0              58.90328       2128.3432    
    489000   289.87076     -4.3930599      0              56.268825      2130.739     
    490000   304.72228     -4.4235068      0              59.346387      2073.4871    
    491000   304.09624     -4.2239443      0              59.414938      2165.2517    
    492000   298.32195     -4.4003519      0              58.030131      2136.4237    
    493000   295.90975     -5.1337975      0              56.79188       2039.9286    
    494000   299.76753     -4.6135244      0              58.119479      2048.586     
    495000   304.06303     -2.1328081      0              61.499124      2159.1498    
    496000   299.53217     -3.9817919      0              58.701957      2029.9723    
    497000   301.47525     -3.2814291      0              59.808951      2199.0427    
    498000   293.4948      -4.6537237      0              56.766572      1970.6517    
    499000   300.46435     -3.5906993      0              59.288128      2207.8866    
    500000   297.04134     -3.6201045      0              58.542384      2186.1316    
    501000   305.23544     -3.1228572      0              60.754427      2063.4361    
    502000   301.82636     -4.6724744      0              58.491384      2072.8655    
    503000   303.70259     -3.5811385      0              59.975363      2212.1735    
    504000   294.86541     -4.7241006      0              56.983025      2006.8128    
    505000   309.90394     -5.5883645      0              59.265908      2049.4518    
    506000   297.97722     -3.9775273      0              58.380813      2084.4905    
    507000   298.05246     -5.2160604      0              57.158026      1953.4142    
    508000   305.98346     -4.6884279      0              59.345396      2032.8332    
    509000   298.64015     -5.8405673      0              56.656507      2080.9551    
    510000   295.29927     -4.7863761      0              57.011545      2133.5695    
    511000   292.07954     -3.7933433      0              57.330778      2047.112     
    512000   300.8961      -4.216402       0              58.752778      2121.6602    
    513000   289.71702     -4.8900891      0              55.739621      2102.3937    
    514000   303.77733     -4.0171105      0              59.555032      2101.1248    
    515000   315.53891     -5.2351917      0              60.798323      2210.1298    
    516000   305.86285     -4.0680907      0              59.940492      2127.8573    
    517000   297.77955     -5.235773       0              57.081202      2192.4086    
    518000   299.9194      -4.2357219      0              58.529063      2121.1128    
    519000   298.1376      -3.8903357      0              58.501569      2142.3785    
    520000   296.61756     -4.4742358      0              57.599565      2002.1743    
    521000   305.43833     -6.2172048      0              57.702538      2069.4918    
    522000   298.63315     -3.7065329      0              58.789077      2105.729     
    523000   309.75634     -5.6117459      0              59.211636      1936.1972    
    524000   309.60615     -4.0029886      0              60.788964      2119.3839    
    525000   300.96864     -3.7850077      0              59.199355      2132.7141    
    526000   315.06136     -4.7074185      0              61.226158      2186.0063    
    527000   302.74436     -4.5319738      0              58.823996      2116.4892    
    528000   303.52086     -4.4445143      0              59.073956      2056.6125    
    529000   297.55449     -5.0691941      0              57.20068       2061.9737    
    530000   298.04008     -4.890474       0              57.481021      2094.7631    
    531000   298.57665     -4.0747902      0              58.408995      2128.9029    
    532000   300.26894     -4.5355844      0              58.302349      2149.7005    
    533000   298.07054     -3.4605327      0              58.917338      2112.0526    
    534000   293.32092     -3.4149884      0              57.968917      2126.6857    
    535000   301.47821     -5.2387965      0              57.852205      2037.1047    
    536000   295.67627     -5.2270888      0              56.649726      2057.5013    
    537000   301.24303     -4.9937395      0              58.048044      2068.3264    
    538000   302.93714     -3.4311858      0              59.965128      2085.9395    
    539000   293.87794     -5.1304368      0              56.370039      2027.8718    
    540000   299.31052     -4.7275332      0              57.90983       2137.6625    
    541000   294.72567     -6.1549418      0              55.52294       2005.3463    
    542000   299.60704     -4.5736742      0              58.125743      1991.6657    
    543000   303.42656     -3.4749714      0              60.023766      2106.0409    
    544000   293.62123     -4.0045206      0              57.442233      2047.8317    
    545000   302.04541     -4.7442977      0              58.465403      2124.5263    
    546000   296.13829     -4.1565955      0              57.816909      2029.4283    
    547000   297.82691     -4.6206655      0              57.706219      2060.9933    
    548000   297.90902     -5.2197828      0              57.124285      2077.9342    
    549000   293.33958     -6.1722602      0              55.215552      1924.98      
    550000   302.35244     -6.2834667      0              56.990487      2026.7037    
    551000   293.39322     -4.8184446      0              56.580592      2128.4706    
    552000   286.28011     -6.8311461      0              53.079315      2048.1572    
    553000   297.47999     -4.4912826      0              57.763003      2128.4237    
    554000   298.06623     -3.8780806      0              58.498888      2126.6755    
    555000   304.4303      -4.6589586      0              59.049833      2128.7222    
    556000   304.12751     -5.5907342      0              58.054692      2041.9117    
    557000   307.21378     -5.2043855      0              59.08691       2098.153     
    558000   295.71746     -4.8840522      0              57.001383      2020.5129    
    559000   299.75955     -4.5497911      0              58.181543      2124.8758    
    560000   294.40546     -3.8551636      0              57.755707      2093.1709    
    561000   285.83536     -4.92197        0              54.895417      2054.8987    
    562000   308.09541     -4.5675605      0              59.908235      2152.1195    
    563000   292.99256     -4.2983308      0              57.01686       1948.6197    
    564000   292.30938     -5.4813506      0              55.69087       2084.5057    
    565000   297.87822     -4.8633096      0              57.474313      2170.9509    
    566000   297.86639     -5.0129086      0              57.322238      2081.7672    
    567000   297.25787     -6.336753       0              55.871047      2019.3528    
    568000   312.86318     -5.0561446      0              60.417414      2130.5721    
    569000   307.15995     -4.754369       0              59.525661      2007.7885    
    570000   292.35902     -4.0927971      0              57.08981       2088.3576    
    571000   296.19827     -4.3717341      0              57.614322      2038.0366    
    572000   295.34912     -5.5915538      0              56.216799      2097.6251    
    573000   291.33942     -3.5940417      0              57.375193      2107.2141    
    574000   303.82793     -3.8279699      0              59.754761      2056.5581    
    575000   300.63427     -5.9076056      0              57.006783      2023.8811    
    576000   296.69764     -3.3065381      0              58.784022      2085.751     
    577000   294.87868     -5.8605881      0              55.849314      2054.4158    
    578000   302.66235     -5.8410915      0              57.497717      2064.3058    
    579000   299.21052     -5.5793098      0              57.037126      2036.0027    
    580000   292.00785     -4.8527742      0              56.256343      2030.5696    
    581000   300.27686     -6.3622582      0              56.477334      2088.8331    
    582000   299.34047     -5.6665911      0              56.977039      1994.6693    
    583000   302.19926     -5.8054081      0              57.436489      2105.3689    
    584000   299.9337      -4.1880094      0              58.579767      2120.4678    
    585000   296.29539     -5.5061789      0              56.500202      2063.8596    
    586000   310.41462     -3.3627895      0              61.598354      2254.6975    
    587000   294.09466     -4.8496153      0              56.696214      2110.6112    
    588000   293.82178     -2.2296254      0              59.259098      2169.3307    
    589000   295.24723     -5.6288591      0              56.15817       2096.8399    
    590000   301.48861     -5.6455651      0              57.447613      2111.8228    
    591000   310.13646     -6.3917744      0              58.511158      2038.0698    
    592000   293.96883     -4.3893205      0              57.130176      2049.2207    
    593000   302.59276     -3.746991       0              59.577254      2140.0933    
    594000   289.1241      -6.1174082      0              54.38822       2045.3352    
    595000   294.8352      -5.4013336      0              56.299469      2132.2341    
    596000   300.03274     -5.2775444      0              57.51096       2171.124     
    597000   315.53268     -4.6877119      0              61.344498      2177.303     
    598000   296.95732     -3.3390378      0              58.805866      2189.4769    
    599000   294.4379      -5.3684705      0              56.249189      2005.4161    
    600000   291.42972     -5.1962256      0              55.791906      2044.6242    
    601000   301.57511     -4.0995985      0              59.011681      2081.7443    
    602000   304.63319     -4.684396       0              59.066854      2014.4271    
    603000   301.39583     -2.5866774      0              60.487084      2138.8792    
    604000   303.0731      -5.7912827      0              57.633485      2025.5441    
    605000   297.75065     -4.9632865      0              57.34764       2040.5545    
    606000   300.10998     -4.6388921      0              58.165776      1993.601     
    607000   298.95225     -3.7285876      0              58.833801      2087.2889    
    608000   301.97203     -3.8511043      0              59.343238      2039.7919    
    609000   297.41555     -2.6364208      0              59.604379      2101.4104    
    610000   309.32407     -4.8242414      0              59.908679      2101.6573    
    611000   290.86735     -4.4532208      0              56.417222      2063.5932    
    612000   292.21293     -6.6600697      0              54.491966      2026.9792    
    613000   307.33913     -5.8189431      0              58.498585      2186.116     
    614000   303.16693     -4.4558922      0              58.988511      2230.2472    
    615000   299.54111     -6.3656896      0              56.319929      1916.4459    
    616000   288.04905     -3.8312933      0              56.449358      2105.8682    
    617000   293.51525     -4.5545655      0              56.870008      2009.7135    
    618000   305.81951     -4.4813691      0              59.518145      2109.7066    
    619000   290.50944     -3.742481       0              57.053062      2096.617     
    620000   294.22647     -5.1047896      0              56.468624      1925.8906    
    621000   302.47518     -4.9276322      0              58.372006      2037.8921    
    622000   305.544       -4.9003838      0              59.041474      2091.7391    
    623000   310.1866      -4.14579        0              60.767635      2147.0573    
    624000   296.49995     -4.3817363      0              57.667454      2141.3329    
    625000   300.36156     -4.029124       0              58.828192      2096.2003    
    626000   295.0091      -5.7919272      0              55.945269      1984.6448    
    627000   300.667       -4.0488772      0              58.87236       2046.661     
    628000   297.1904      -6.1192407      0              56.074441      2052.195     
    629000   302.16522     -4.0158261      0              59.218947      2157.8189    
    630000   294.2712      -4.8220632      0              56.760712      1978.861     
    631000   310.29684     -6.2568507      0              58.679645      2011.4994    
    632000   299.98807     -4.1492309      0              58.629925      2106.6024    
    633000   301.47887     -2.2818097      0              60.809328      2188.9058    
    634000   306.34959     -4.6399714      0              59.470474      2071.4406    
    635000   292.59851     -6.8091354      0              54.423591      2011.174     
    636000   303.05367     -3.3909353      0              60.029765      2117.3068    
    637000   296.28607     -4.125285       0              57.879144      2102.7677    
    638000   301.03864     -3.5183273      0              59.480683      2151.1683    
    639000   304.30728     -5.120201       0              58.562845      1983.991     
    640000   306.44827     -4.6749812      0              59.456115      2064.1221    
    641000   307.22139     -3.3307659      0              60.962123      2206.1333    
    642000   295.33532     -4.6578057      0              57.147659      2126.4279    
    643000   306.13021     -4.1660672      0              59.898468      2114.2615    
    644000   300.88059     -5.3475044      0              57.618432      2093.5915    
    645000   296.30058     -3.5845433      0              58.422924      2082.4229    
    646000   298.49449     -4.1670989      0              58.299492      2138.291     
    647000   296.40948     -4.5127384      0              57.517517      2177.3064    
    648000   290.82143     -4.2571237      0              56.60371       2091.6173    
    649000   299.92974     -5.3009341      0              57.466015      2077.9249    
    650000   305.28553     -5.7894489      0              58.098318      1982.1932    
    651000   286.57262     -4.3028496      0              55.668827      2102.2052    
    652000   295.49982     -5.4660975      0              56.373793      1985.5836    
    653000   309.12004     -3.8878273      0              60.802397      2149.0919    
    654000   306.92483     -5.439711       0              58.791115      2038.1502    
    655000   302.42495     -4.394184       0              58.894943      2171.4201    
    656000   301.1155      -4.3280305      0              58.687065      2085.3588    
    657000   290.49447     -3.9144867      0              56.877923      2192.4595    
    658000   302.85373     -4.2821422      0              59.096717      2125.7839    
    659000   301.16839     -5.4790937      0              57.54707       2034.0267    
    660000   304.70214     -5.4496011      0              58.316078      2051.4592    
    661000   293.51637     -5.4863074      0              55.938501      2067.6673    
    662000   297.81826     -4.1628367      0              58.162238      2136.1912    
    663000   306.02449     -5.3736466      0              58.668765      2114.4018    
    664000   295.64506     -4.4428796      0              57.427405      2078.0665    
    665000   294.6897      -5.1583755      0              56.511979      2106.8817    
    666000   285.05565     -4.1191897      0              55.535027      2110.775     
    667000   303.0153      -5.0739146      0              58.338756      2119.0852    
    668000   310.25073     -5.3435735      0              59.583271      2063.4707    
    669000   301.63793     -4.700114       0              58.424313      2067.2674    
    670000   294.18814     -4.8750511      0              56.690342      2125.9541    
    671000   299.54226     -5.0458919      0              57.639969      2104.339     
    672000   309.58766     -4.814418       0              59.973665      2242.4684    
    673000   294.15814     -5.1080019      0              56.451112      2157.21      
    674000   287.46317     -4.727789       0              55.430253      2006.7786    
    675000   301.30566     -4.6196077      0              58.435284      2216.9202    
    676000   301.31472     -3.1978253      0              59.858961      2204.5497    
    677000   309.06912     -4.3625125      0              60.317054      2029.2343    
    678000   309.12858     -4.444226       0              60.247784      2081.1277    
    679000   298.00779     -3.9270359      0              58.437703      2010.0297    
    680000   294.96885     -5.164827       0              56.563946      2125.4809    
    681000   300.20353     -6.4832039      0              56.341043      2002.2087    
    682000   298.67536     -4.330943       0              58.1735        2023.7149    
    683000   304.31337     -5.1020654      0              58.582254      1948.6618    
    684000   292.66898     -4.1287228      0              57.11875       2065.726     
    685000   300.64043     -5.2412818      0              57.674395      2001.9715    
    686000   296.48604     -5.2147234      0              56.831554      2015.1734    
    687000   298.41875     -5.2245121      0              57.226229      2141.532     
    688000   293.43097     -5.5221888      0              55.884748      1991.003     
    689000   295.84948     -5.5224495      0              56.390615      2106.1503    
    690000   303.45825     -4.5184472      0              58.986921      2137.8837    
    691000   302.06691     -4.3666705      0              58.847529      2182.4012    
    692000   292.94973     -3.488483       0              57.817745      2083.7742    
    693000   300.7758      -4.2796774      0              58.664327      2145.5951    
    694000   296.53997     -4.1393375      0              57.918227      2131.0315    
    695000   302.37673     -4.6681028      0              58.610934      2203.9764    
    696000   296.48386     -7.2092675      0              54.836555      2038.8325    
    697000   290.00749     -5.2802976      0              55.410201      2093.7265    
    698000   296.82838     -5.9419395      0              56.175981      2114.5893    
    699000   313.04588     -4.292329       0              61.219462      2180.0966    
    700000   294.88922     -4.0164163      0              57.695692      2027.6218    
    701000   306.89454     -4.3741383      0              59.850349      2051.275     
    702000   306.39843     -2.6665716      0              61.454094      2146.789     
    703000   295.89979     -4.6634925      0              57.260101      2134.6077    
    704000   301.75817     -4.8552648      0              58.294325      2117.653     
    705000   297.95347     -5.0029653      0              57.350406      2054.303     
    706000   302.62288     -3.8813314      0              59.449216      2147.9621    
    707000   294.16695     -4.1118251      0              57.449133      2044.9476    
    708000   299.55322     -4.8598178      0              57.828336      2075.5354    
    709000   312.45429     -2.7280904      0              62.659899      2193.4833    
    710000   298.77935     -4.7586294      0              57.767574      2084.87      
    711000   296.73788     -4.2054976      0              57.893483      2152.5803    
    712000   304.80817     -4.9902743      0              58.797594      2075.3569    
    713000   308.05803     -4.2850536      0              60.18292       2152.5903    
    714000   300.98078     -4.0360124      0              58.950889      2180.7314    
    715000   301.37309     -4.9052518      0              58.163751      2152.5937    
    716000   299.03178     -4.5669721      0              58.012058      2212.2941    
    717000   302.7285      -5.9866497      0              57.366002      1996.0551    
    718000   304.81336     -5.2006121      0              58.588343      2087.3629    
    719000   305.42444     -3.0868885      0              60.829948      2164.2717    
    720000   290.60039     -3.494906       0              57.319669      2040.1429    
    721000   306.26227     -4.396584       0              59.695587      2114.695     
    722000   305.85937     -5.1259175      0              58.881937      2105.0844    
    723000   299.71919     -5.9666577      0              56.756228      2044.319     
    724000   293.94398     -3.5927945      0              57.921501      2168.8021    
    725000   305.4289      -4.3135059      0              59.604265      2104.4598    
    726000   303.63459     -5.5540836      0              57.988188      2012.5195    
    727000   302.43827     -5.4035585      0              57.888355      2037.4251    
    728000   296.6851      -6.3904555      0              55.697481      2028.0719    
    729000   309.36899     -4.016408       0              60.725913      2183.8536    
    730000   301.9148      -4.7253151      0              58.457052      2124.7557    
    731000   300.70855     -4.3718683      0              58.558064      2081.5582    
    732000   303.03868     -3.650669       0              59.766894      2142.8373    
    733000   292.61916     -3.8553243      0              57.381723      2147.0606    
    734000   299.8212      -5.1127178      0              57.631516      2010.7961    
    735000   292.46207     -4.334181       0              56.869993      2046.947     
    736000   296.91696     -5.6023168      0              56.534142      2010.6534    
    737000   313.98467     -3.8696844      0              61.83857       2105.3617    
    738000   301.3506      -4.4079289      0              58.656366      2127.8626    
    739000   299.27639     -3.6869991      0              58.943223      2147.6238    
    740000   298.46981     -4.3613578      0              58.100068      2270.9353    
    741000   307.0893      -4.0113567      0              60.253889      2087.1845    
    742000   303.94745     -2.5751937      0              61.032549      2145.1263    
    743000   295.63172     -4.0638085      0              57.803685      2147.663     
    744000   310.5948      -5.262501       0              59.736347      2034.6108    
    745000   303.98346     -5.2470333      0              58.368246      2140.5184    
    746000   300.04257     -5.7714304      0              57.019132      1975.8452    
    747000   289.87315     -5.8815061      0              54.780878      2015.5113    
    748000   301.80167     -3.8952333      0              59.263458      2199.8647    
    749000   304.29166     -5.7425492      0              57.937228      2060.1456    
    750000   294.08806     -4.4611671      0              57.083281      2143.1276    
    751000   309.85608     -4.0423737      0              60.801882      2090.0968    
    752000   299.37527     -1.9812572      0              60.669656      2239.768     
    753000   294.80112     -5.2614904      0              56.432181      2056.9594    
    754000   303.83353     -5.1515403      0              58.432364      2107.5403    
    755000   309.0617      -4.549701       0              60.128313      2122.7859    
    756000   301.13285     -5.1135114      0              57.905215      2117.8898    
    757000   300.93081     -4.5011995      0              58.475246      2075.5712    
    758000   303.91044     -5.6775328      0              57.922467      2011.5383    
    759000   300.94349     -4.8573776      0              58.121722      2015.3196    
    760000   302.91045     -4.059506       0              59.331222      2137.786     
    761000   294.09539     -5.2554176      0              56.290564      2075.9176    
    762000   289.91884     -3.3803001      0              57.291646      2048.1362    
    763000   309.38821     -4.5797134      0              60.16663       2170.1559    
    764000   303.6058      -4.5115958      0              59.024651      2243.3935    
    765000   301.64371     -5.7201279      0              57.405508      2070.3464    
    766000   294.48535     -3.7366195      0              57.89097       2056.7033    
    767000   309.71283     -3.671811       0              61.142467      2113.2092    
    768000   303.08626     -3.5752268      0              59.852294      2219.1499    
    769000   313.32885     -3.8181844      0              61.752826      2104.0806    
    770000   295.01237     -4.2442054      0              57.493675      2091.7857    
    771000   291.43528     -6.0603828      0              54.928911      1982.7317    
    772000   299.23981     -5.6238895      0              56.998677      1981.832     
    773000   305.99684     -3.192371       0              60.844252      2199.227     
    774000   306.8647      -4.5680763      0              59.650166      2143.4416    
    775000   289.94605     -4.6428072      0              56.034832      2120.4034    
    776000   302.21689     -3.735863       0              59.509723      2121.7168    
    777000   292.27514     -3.4776381      0              57.687416      2067.656     
    778000   306.79963     -4.3503415      0              59.854283      2114.8528    
    779000   285.43658     -2.9286318      0              56.805302      2168.0714    
    780000   299.37767     -3.6090339      0              59.042382      2158.2485    
    781000   291.22957     -4.3548537      0              56.591392      2004.7587    
    782000   294.07121     -3.9979281      0              57.542993      2101.3231    
    783000   298.11735     -4.3272317      0              58.060434      2024.3355    
    784000   296.16249     -4.8361155      0              57.142452      2089.7698    
    785000   299.95907     -4.1193194      0              58.653768      2082.9082    
    786000   301.77048     -3.6465012      0              59.505663      2171.9524    
    787000   292.86759     -4.4007011      0              56.888337      2091.4776    
    788000   296.46651     -3.7092841      0              58.332908      2088.2094    
    789000   299.05122     -5.5733191      0              57.00978       2112.2565    
    790000   291.1688      -3.5463187      0              57.38721       2100.0831    
    791000   295.55438     -6.1757086      0              55.6756        2004.5347    
    792000   303.1195      -4.3150129      0              59.119464      2058.4895    
    793000   304.4192      -5.1506258      0              58.555843      2121.1051    
    794000   303.85117     -4.8384206      0              58.749174      2115.4578    
    795000   290.77698     -5.5327481      0              55.318783      1896.4108    
    796000   310.06548     -4.4371226      0              60.450956      2094.1555    
    797000   294.1445      -4.5239145      0              57.032344      2045.3377    
    798000   302.73784     -4.9955367      0              58.359069      2033.7864    
    799000   294.74434     -3.8372893      0              57.844499      2094.692     
    800000   296.46474     -4.0921721      0              57.94965       2066.9209    
    801000   299.16498     -4.4313273      0              58.175579      2056.8686    
    802000   303.55241     -4.497587       0              59.027486      2009.9623    
    803000   296.52749     -4.708049       0              57.346904      2065.0679    
    804000   297.18646     -5.4956648      0              56.697192      2051.4644    
    805000   296.95821     -3.6750088      0              58.470081      2086.6048    
    806000   301.32665     -4.6242571      0              58.435027      2131.9961    
    807000   306.11574     -5.2753696      0              58.786137      2094.0299    
    808000   305.35134     -5.4901591      0              58.411379      2055.5633    
    809000   299.30062     -4.4502811      0              58.18501       2124.7772    
    810000   289.91567     -5.425311       0              55.245971      2131.2576    
    811000   292.9004      -4.5535924      0              56.742312      2143.9518    
    812000   315.32073     -5.1357484      0              60.852107      2061.2159    
    813000   300.7627      -4.1564585      0              58.784806      2216.6418    
    814000   299.90979     -5.0024747      0              57.7603        2025.2847    
    815000   302.28778     -4.3221165      0              58.938305      2192.9998    
    816000   305.05697     -3.2097786      0              60.630157      2174.6543    
    817000   312.59239     -5.2697749      0              60.147114      2109.8993    
    818000   290.48743     -6.2837287      0              54.507207      2040.7312    
    819000   303.63066     -7.0365658      0              56.504884      1920.0907    
    820000   301.67193     -4.3671924      0              58.764349      2185.2064    
    821000   296.72745     -4.8678193      0              57.228979      2112.3826    
    822000   297.09393     -4.8584176      0              57.315076      2132.0788    
    823000   310.21683     -5.5963443      0              59.323406      2085.8193    
    824000   302.00172     -4.2353662      0              58.96519       2023.5632    
    825000   298.68354     -5.1281679      0              57.377986      2071.8974    
    826000   300.39922     -5.0854056      0              57.779793      2000.4698    
    827000   307.18204     -4.3116675      0              59.972986      2081.851     
    828000   303.65278     -5.16847        0              58.377607      2069.4675    
    829000   296.86741     -5.1443273      0              56.981761      2037.3388    
    830000   305.57926     -3.2025885      0              60.746647      2234.0829    
    831000   292.25497     -4.9157322      0              56.245101      2044.1002    
    832000   292.46975     -3.6856581      0              57.520122      2106.2391    
    833000   308.58259     -4.9652831      0              59.612466      2092.8923    
    834000   296.07062     -4.1738179      0              57.785525      2113.0442    
    835000   302.22918     -3.3111027      0              59.937055      2252.5358    
    836000   303.86806     -4.9512869      0              58.639844      2116.3126    
    837000   288.87586     -5.4022881      0              55.05139       2073.8696    
    838000   307.04254     -6.3766112      0              57.878849      2073.4827    
    839000   300.94348     -5.3490278      0              57.63007       2066.6542    
    840000   296.79279     -4.0202801      0              58.090192      2022.1507    
    841000   298.04019     -4.5368379      0              57.834681      2062.6827    
    842000   306.66515     -5.3494039      0              58.82708       2102.234     
    843000   303.33507     -4.9190044      0              58.560585      2062.6016    
    844000   298.88708     -3.7503044      0              58.798446      2182.8439    
    845000   296.79347     -5.1566586      0              56.953957      2040.2302    
    846000   298.44615     -3.9445449      0              58.51193       2084.144     
    847000   305.31025     -3.7094838      0              60.183457      2157.2633    
    848000   310.94091     -4.2939873      0              60.777293      2239.1468    
    849000   295.82251     -5.3150324      0              56.592387      2143.59      
    850000   302.32454     -3.9944061      0              59.273707      2074.254     
    851000   309.02205     -3.8543924      0              60.815325      2218.0309    
    852000   301.53588     -4.6807518      0              58.422317      2262.7649    
    853000   293.40947     -5.4458206      0              55.956618      2043.8916    
    854000   298.99439     -4.2241879      0              58.347019      1982.3736    
    855000   292.19936     -3.5062457      0              57.642949      2181.2964    
    856000   298.62564     -4.4118033      0              58.082235      2104.0338    
    857000   312.09006     -6.2643415      0              59.047424      1988.8131    
    858000   295.8816      -6.0904757      0              55.82931       2141.2964    
    859000   295.61315     -4.544734       0              57.318873      2098.9491    
    860000   311.53777     -5.0448456      0              60.151341      2070.6601    
    861000   290.06007     -4.0949034      0              56.606599      2076.5897    
    862000   300.90769     -3.9193821      0              59.052224      2184.8873    
    863000   289.25488     -3.6299125      0              56.903086      2182.6902    
    864000   302.19885     -3.7048481      0              59.536962      2108.4794    
    865000   292.38328     -3.5076474      0              57.680038      2084.6237    
    866000   304.51812     -4.3484261      0              59.378744      2122.0349    
    867000   297.59706     -2.648151       0              59.630633      2133.3211    
    868000   306.639       -6.160762       0              58.010248      2021.4326    
    869000   296.68366     -4.3481481      0              57.739487      2089.04      
    870000   309.36495     -5.2407274      0              59.500748      2087.3576    
    871000   296.25801     -5.0416757      0              56.956883      2101.8997    
    872000   301.85517     -3.2865874      0              59.8833        2167.4066    
    873000   293.98171     -4.921106       0              56.601086      2033.4711    
    874000   292.14358     -5.8989133      0              55.238609      2015.3823    
    875000   290.12425     -5.4840672      0              55.230866      2024.6519    
    876000   299.01567     -4.8895303      0              57.686129      2025.9739    
    877000   305.15153     -4.8813292      0              58.978396      2113.8766    
    878000   304.64669     -4.476669       0              59.277406      2074.0434    
    879000   301.8768      -3.6067225      0              59.567692      2156.6395    
    880000   301.28711     -5.28237        0              57.768639      2017.4164    
    881000   305.31131     -4.8256782      0              59.067483      2098.4797    
    882000   294.98393     -5.2519107      0              56.480019      2124.6146    
    883000   302.66602     -4.1757053      0              59.16387       2102.0202    
    884000   302.02415     -4.2076087      0              58.997643      2165.151     
    885000   303.18578     -4.7504457      0              58.697903      2118.2013    
    886000   288.33552     -5.7839794      0              54.556623      1992.8566    
    887000   300.19436     -5.1109001      0              57.711426      2038.8303    
    888000   297.81303     -7.1135997      0              55.21038       1983.0612    
    889000   294.86992     -5.4721206      0              56.23595       2004.1809    
    890000   301.63419     -3.5861928      0              59.537451      2114.906     
    891000   313.57456     -5.1775511      0              60.44488       2034.5792    
    892000   300.10677     -3.4751809      0              59.328816      2104.7118    
    893000   298.38649     -4.5538658      0              57.890124      2104.8895    
    894000   298.51465     -4.0755312      0              58.395278      2072.3518    
    895000   300.20581     -4.6811195      0              58.143602      1954.1308    
    896000   304.39123     -5.676644       0              58.02397       2032.0789    
    897000   288.81353     -5.1264142      0              55.314221      2051.1151    
    898000   289.39722     -4.9206133      0              55.642173      2121.1275    
    899000   306.30608     -5.4746846      0              58.626654      2106.4272    
    900000   305.03114     -2.9585478      0              60.875982      2270.4566    
    901000   298.01803     -5.4819673      0              56.884913      2029.392     
    902000   293.52126     -6.2578534      0              55.16798       1981.5585    
    903000   296.37501     -5.6853403      0              56.337702      2074.182     
    904000   299.26203     -4.7081402      0              57.919075      2044.2966    
    905000   300.19512     -3.0540052      0              59.76848       2159.658     
    906000   303.22215     -4.6832884      0              58.77267       2148.4853    
    907000   298.81382     -5.7063162      0              56.827102      2054.0392    
    908000   288.36491     -3.4186346      0              56.928116      2141.2742    
    909000   302.37699     -4.2159036      0              59.063187      2115.8777    
    910000   307.94989     -5.2212734      0              59.22407       2064.039     
    911000   294.71262     -3.5815935      0              58.093557      2144.7519    
    912000   300.18553     -4.0419417      0              58.778538      1970.5848    
    913000   306.39186     -5.3888951      0              58.730396      2029.3812    
    914000   301.46296     -4.7286571      0              58.359153      2116.4528    
    915000   297.31299     -2.9578915      0              59.261444      2149.044     
    916000   293.33355     -4.424415       0              56.962135      2086.8674    
    917000   303.65848     -5.5141651      0              58.033106      2055.6849    
    918000   296.24615     -3.9325226      0              58.063553      2164.2689    
    919000   299.53439     -3.2795978      0              59.404615      2203.5062    
    920000   301.84979     -3.5833663      0              59.585396      2123.2427    
    921000   307.53662     -4.4328374      0              59.926019      2230.0797    
    922000   303.6906      -5.3110687      0              58.242923      2011.471     
    923000   291.68471     -4.2427308      0              56.798762      2133.4834    
    924000   296.4926      -4.1192128      0              57.928439      2049.6062    
    925000   302.76745     -6.0050875      0              57.355715      2059.3994    
    926000   291.86043     -5.2254368      0              55.852831      2087.8763    
    927000   299.67946     -5.3019357      0              57.412636      2079.7991    
    928000   306.51858     -4.8194581      0              59.326351      2176.2437    
    929000   291.74342     -4.151977       0              56.901802      2025.0987    
    930000   309.41576     -4.267574       0              60.484535      2167.6609    
    931000   296.54083     -5.8533247      0              56.20442       2026.7058    
    932000   296.64705     -6.2210232      0              55.85895       2131.6702    
    933000   294.08566     -6.9311259      0              54.612819      2101.7823    
    934000   306.08559     -5.4446166      0              58.61058       2044.9944    
    935000   294.17576     -5.5842623      0              55.978539      1910.2551    
    936000   291.14425     -4.2817401      0              56.64665       2040.3748    
    937000   295.00672     -5.2712972      0              56.4654        2041.9316    
    938000   290.54575     -4.557714       0              56.245428      2109.3213    
    939000   298.64999     -3.9227212      0              58.576411      2145.2172    
    940000   305.60118     -5.4551246      0              58.498698      2050.8862    
    941000   290.75492     -6.024622       0              54.822292      2116.0704    
    942000   306.28327     -4.3932312      0              59.703336      2062.2689    
    943000   301.0198      -5.0489663      0              57.946102      1993.4572    
    944000   303.85479     -3.8969284      0              59.691425      2066.1826    
    945000   298.9341      -2.8248493      0              59.73374       2191.3484    
    946000   290.31194     -4.7237801      0              56.030431      2047.4412    
    947000   297.59615     -4.3054775      0              57.973115      2140.3397    
    948000   309.8893      -4.9180649      0              59.933142      2045.6774    
    949000   299.13319     -4.5860777      0              58.014176      2132.7216    
    950000   303.86282     -4.3819989      0              59.208034      2068.4065    
    951000   299.63049     -2.8474075      0              59.856917      2123.5862    
    952000   313.61743     -3.4290159      0              62.202385      2132.7169    
    953000   296.57507     -4.5393419      0              57.525567      2022.1303    
    954000   301.53477     -4.6673342      0              58.435503      2130.1008    
    955000   304.45074     -4.5270783      0              59.18599       2098.1167    
    956000   290.98866     -4.4770649      0              56.418766      2076.87      
    957000   306.49641     -2.8771129      0              61.264057      2078.7311    
    958000   300.50361     -3.3088154      0              59.578229      2180.7615    
    959000   297.16489     -4.0188035      0              58.16954       2107.8775    
    960000   307.44049     -6.4097836      0              57.928956      2008.3856    
    961000   303.51471     -4.6555702      0              58.861614      2148.8025    
    962000   296.55568     -5.2839447      0              56.776907      2076.0037    
    963000   300.79131     -5.1173024      0              57.829949      2011.5576    
    964000   302.26443     -3.2598724      0              59.995663      2140.3144    
    965000   303.45711     -4.8383206      0              58.666809      2158.4505    
    966000   299.283       -4.2138648      0              58.41774       2048.0107    
    967000   296.15182     -5.1640835      0              56.812251      2094.6939    
    968000   301.50149     -4.8938462      0              58.202027      2077.4722    
    969000   296.48686     -4.753857       0              57.292594      2093.4488    
    970000   307.39317     -4.6486219      0              59.680216      2165.384     
    971000   301.47699     -4.6679757      0              58.42277       2131.1866    
    972000   292.15859     -3.9919049      0              57.148759      1950.8533    
    973000   299.03331     -4.9088896      0              57.670463      1985.1378    
    974000   304.59302     -4.082348       0              59.660496      2258.1068    
    975000   295.6579      -4.4197781      0              57.453194      2004.4091    
    976000   292.33434     -3.2062         0              57.971244      2209.1171    
    977000   290.34832     -5.0558534      0              55.70597       2052.3987    
    978000   296.20241     -4.4127599      0              57.574163      2029.2392    
    979000   299.50501     -3.7549753      0              58.923089      2126.2503    
    980000   303.69132     -4.7015767      0              58.852566      2134.6053    
    981000   296.20323     -4.0165091      0              57.970585      2081.742     
    982000   313.39793     -4.2870277      0              61.298438      2055.5009    
    983000   300.95984     -5.5413768      0              57.441143      2003.4753    
    984000   294.45522     -5.6598403      0              55.961443      2090.9377    
    985000   301.88368     -3.6558109      0              59.520043      2038.0676    
    986000   305.80123     -4.0989521      0              59.896737      1997.0582    
    987000   310.75423     -4.037971       0              60.994242      2057.8949    
    988000   296.88142     -4.2365015      0              57.892519      2063.1653    
    989000   298.59416     -4.1455193      0              58.341931      2031.4257    
    990000   302.97528     -5.4577028      0              57.946593      2055.6754    
    991000   294.50973     -4.6928978      0              56.939793      1981.8727    
    992000   297.68423     -4.0584022      0              58.238624      2030.8467    
    993000   290.03503     -4.6367098      0              56.059551      2100.0077    
    994000   297.96114     -3.7841301      0              58.570846      2209.623     
    995000   317.05111     -6.1733398      0              60.176636      2033.5056    
    996000   298.22661     -3.3800742      0              59.030458      2142.1196    
    997000   296.48306     -2.1770361      0              59.868619      2222.6295    
    998000   299.37275     -5.1076322      0              57.542754      2033.2329    
    999000   292.26216     -3.4233048      0              57.739033      2025.5517    
   1000000   299.36499     -5.1967914      0              57.451971      2119.6528    
   1001000   305.22985     -5.7511443      0              58.124971      2084.127     
   1002000   293.79116     -5.9705088      0              55.511805      2012.003     
   1003000   309.84859     -4.3564736      0              60.486214      2094.2143    
   1004000   298.24784     -2.8749329      0              59.54004       2173.4834    
   1005000   305.56992     -5.2096287      0              58.737653      2085.7725    
   1006000   297.71625     -4.7028055      0              57.600922      2126.0791    
   1007000   298.63243     -4.2793789      0              58.21608       2064.9512    
   1008000   303.93738     -3.8252315      0              59.780406      2055.6169    
   1009000   309.03443     -5.770267       0              58.902039      2029.3389    
   1010000   293.59183     -4.3601102      0              57.080492      2116.743     
   1011000   301.3848      -5.0572298      0              58.014223      2121.6132    
   1012000   309.35933     -4.4050043      0              60.335295      2179.0805    
   1013000   292.02803     -5.9516406      0              55.1617        1954.0897    
   1014000   306.13733     -6.4339979      0              57.632026      2062.0645    
   1015000   302.70961     -7.0418819      0              56.306817      1915.1885    
   1016000   298.03069     -5.3824927      0              56.987037      2092.9378    
   1017000   304.47823     -3.4918067      0              60.227014      2246.45      
   1018000   301.22721     -4.9423049      0              58.096169      2085.681     
   1019000   300.41808     -5.6333474      0              57.235797      1930.4787    
   1020000   311.32702     -5.8867437      0              59.265339      2082.8583    
   1021000   296.09045     -4.2052204      0              57.758271      2101.178     
   1022000   290.70978     -3.7827622      0              57.054705      1998.0562    
   1023000   305.98136     -4.1309411      0              59.902444      2065.3448    
   1024000   295.47899     -4.6884647      0              57.147066      2066.7275    
   1025000   300.51935     -3.4031852      0              59.487153      2136.6834    
   1026000   298.15803     -4.645565       0              57.750615      2142.611     
   1027000   300.3403      -5.577106       0              57.275762      2042.1974    
   1028000   299.00745     -4.8330704      0              57.740868      2044.3893    
   1029000   292.24526     -5.0051279      0              56.153673      2109.9862    
   1030000   301.86171     -3.6486649      0              59.522592      2095.3441    
   1031000   289.04459     -4.7864262      0              55.702563      2040.3282    
   1032000   291.08936     -4.4152243      0              56.501679      2105.1359    
   1033000   295.99685     -4.2468275      0              57.697077      2110.142     
   1034000   303.64461     -4.4969344      0              59.047433      2064.1558    
   1035000   300.34261     -4.1671114      0              58.686239      2104.8647    
   1036000   300.4672      -1.6374912      0              61.241934      2120.4452    
   1037000   298.57436     -3.5794808      0              58.903826      2100.9305    
   1038000   293.50812     -5.1360251      0              56.287058      2055.3204    
   1039000   293.86104     -6.0455244      0              55.451415      2061.3077    
   1040000   298.99617     -3.3319775      0              59.239601      2163.704     
   1041000   297.37983     -3.6485708      0              58.584752      2074.0006    
   1042000   305.7786      -5.142499       0              58.848453      2075.0422    
   1043000   302.98466     -4.871553       0              58.534705      2116.9902    
   1044000   308.03775     -6.3245698      0              58.13916       2077.559     
   1045000   303.39725     -4.5514827      0              58.941119      2094.0407    
   1046000   302.37012     -4.0922065      0              59.185445      2061.9146    
   1047000   296.31571     -5.6451355      0              56.365497      2098.8547    
   1048000   304.61234     -3.9033655      0              59.843521      2112.0399    
   1049000   299.27073     -4.8260781      0              57.802959      2058.6583    
   1050000   297.80226     -4.0638146      0              58.257912      2252.3268    
   1051000   317.82696     -4.566686       0              61.945654      2192.5991    
   1052000   296.37343     -2.9234567      0              59.099255      2095.6495    
   1053000   295.87451     -5.2580926      0              56.660209      2077.1539    
   1054000   302.20529     -3.1124699      0              60.130688      2208.9652    
   1055000   310.33051     -3.9147996      0              61.028742      2148.1375    
   1056000   303.88428     -5.6573919      0              57.937132      2045.2237    
   1057000   293.09681     -6.496691       0              54.840315      2046.2727    
   1058000   292.94238     -7.604287       0              53.700403      2011.4819    
   1059000   306.7023      -4.7394471      0              59.44481       2123.0542    
   1060000   291.91738     -5.0702186      0              56.019967      2026.5251    
   1061000   303.17903     -3.7458514      0              59.701084      2060.5901    
   1062000   299.20529     -3.2819959      0              59.333345      2186.7795    
   1063000   302.41162     -4.5312828      0              58.755054      2070.1402    
   1064000   294.925       -3.9687859      0              57.750811      2043.8774    
   1065000   315.80407     -3.6127486      0              62.476255      2260.0207    
   1066000   297.50256     -4.1130699      0              58.145938      2102.77      
   1067000   300.87625     -4.9767527      0              57.988274      2169.2176    
   1068000   291.20606     -4.8206492      0              56.120676      2048.3532    
   1069000   297.29777     -5.5920724      0              56.624079      2032.5941    
   1070000   304.87399     -3.5372992      0              60.264344      2143.6807    
   1071000   294.28359     -5.136252       0              56.449115      2059.7818    
   1072000   297.81444     -4.4894322      0              57.834842      2082.4931    
   1073000   310.98984     -3.9016808      0              61.17984       2135.5603    
   1074000   289.8268      -4.6776603      0              55.975024      2118.0548    
   1075000   297.43201     -3.64654        0              58.597704      2078.053     
   1076000   297.89976     -4.0629653      0              58.279165      2039.3644    
   1077000   296.69411     -4.1168817      0              57.972939      2111.9777    
   1078000   303.21332     -4.9643297      0              58.489782      2128.8694    
   1079000   298.0136      -5.8481533      0              56.517801      2118.3658    
   1080000   301.1952      -5.5272496      0              57.504526      2096.2853    
   1081000   302.20094     -3.2346038      0              60.007644      2139.9325    
   1082000   297.46855     -4.5736529      0              57.678237      2113.5448    
   1083000   289.9337      -5.6017162      0              55.073339      2014.5908    
   1084000   292.61879     -3.7353384      0              57.501632      2076.5701    
   1085000   294.39861     -5.0775359      0              56.531902      2106.48      
   1086000   301.13511     -5.5004111      0              57.518789      1946.7425    
   1087000   302.32894     -3.7093385      0              59.559696      2180.9853    
   1088000   289.89916     -3.609081       0              57.058746      2043.7174    
   1089000   295.44863     -5.3255842      0              56.503592      1950.0194    
   1090000   295.80741     -4.8822771      0              57.021983      2151.0196    
   1091000   300.37113     -5.5497995      0              57.30952       2044.0644    
   1092000   294.04676     -4.6621417      0              56.873662      2086.3091    
   1093000   303.19344     -3.6298014      0              59.820148      2104.685     
   1094000   298.52148     -4.7569446      0              57.715295      2097.5919    
   1095000   296.68541     -3.6878725      0              58.400128      2208.7824    
   1096000   306.26873     -4.4183856      0              59.675138      2150.691     
   1097000   295.19988     -4.3206816      0              57.456438      2088.9293    
   1098000   291.83243     -5.0048814      0              56.067527      1909.7245    
   1099000   298.07815     -5.2880254      0              57.091437      2121.5127    
   1100000   302.03056     -3.9288852      0              59.277707      2197.3975    
   1101000   298.99036     -3.7811788      0              58.789184      2143.9651    
   1102000   301.21797     -3.9158176      0              59.120722      2077.1476    
   1103000   304.97057     -4.9990371      0              58.822818      2085.6705    
   1104000   288.27541     -3.6969503      0              56.631072      2101.7385    
   1105000   285.81395     -5.8322051      0              53.980701      2097.8836    
   1106000   301.28285     -5.7116603      0              57.338456      2148.0007    
   1107000   299.11974     -3.7832371      0              58.814202      2150.344     
   1108000   300.23637     -3.8144041      0              59.016714      2125.2745    
   1109000   304.96318     -4.4408604      0              59.379447      2147.5312    
   1110000   306.04257     -4.3954298      0              59.650765      2076.1367    
   1111000   295.56922     -4.1873478      0              57.667065      2136.4579    
   1112000   317.51901     -5.3439119      0              61.103981      2125.135     
   1113000   307.34444     -5.7709035      0              58.547736      2161.0113    
   1114000   303.45759     -4.2094699      0              59.295759      2135.1459    
   1115000   302.08099     -6.2221784      0              56.994967      2024.6667    
   1116000   299.92933     -3.8698538      0              58.897009      2080.4556    
   1117000   301.0608      -6.2758641      0              56.727784      2026.6268    
   1118000   309.52926     -4.6270263      0              60.148836      2133.2413    
   1119000   304.40688     -4.9684652      0              58.735424      2074.123     
   1120000   302.11178     -5.2382089      0              57.98538       2127.164     
   1121000   286.97501     -5.6037357      0              54.45215       2009.8543    
   1122000   300.69035     -4.946174       0              57.979948      2037.7619    
   1123000   300.10525     -4.0085572      0              58.79512       2055.4475    
   1124000   297.21755     -4.330125       0              57.869238      2173.9653    
   1125000   303.17383     -5.0422872      0              58.403559      2075.9742    
   1126000   303.85206     -4.7311164      0              58.856666      2053.9677    
   1127000   300.42303     -4.3477559      0              58.522425      2029.0801    
   1128000   301.06559     -4.8600464      0              58.144604      2124.697     
   1129000   300.38898     -4.0953685      0              58.767687      2139.4797    
   1130000   291.53022     -4.1170976      0              56.892067      1967.2634    
   1131000   299.85261     -6.4018895      0              56.348919      2046.4171    
   1132000   301.06827     -4.8691726      0              58.136039      2046.9631    
   1133000   296.19796     -4.7419097      0              57.244082      2033.8986    
   1134000   297.3356      -3.1921268      0              59.031941      2101.536     
   1135000   305.69373     -3.3750094      0              60.598183      2218.3125    
   1136000   298.61041     -5.6878832      0              56.802966      2065.2252    
   1137000   297.18293     -3.9853991      0              58.206719      2099.917     
   1138000   298.85937     -5.7021227      0              56.840827      2028.0874    
   1139000   315.78743     -5.3899969      0              60.695525      2088.4236    
   1140000   292.09455     -3.7956171      0              57.331645      2137.4559    
   1141000   295.51163     -4.2180824      0              57.624279      2042.9584    
   1142000   290.07465     -3.6533928      0              57.051161      2226.1214    
   1143000   300.13431     -4.0348477      0              58.774912      2141.1789    
   1144000   297.80431     -5.9750143      0              56.347141      2095.1151    
   1145000   309.0864      -5.1875185      0              59.495664      2090.9792    
   1146000   292.61147     -4.6175142      0              56.617924      2095.9137    
   1147000   299.47567     -3.6047803      0              59.067144      2181.6963    
   1148000   302.00735     -3.8049478      0              59.396787      2088.8638    
   1149000   300.87484     -5.5942688      0              57.370464      2069.0988    
   1150000   312.51604     -2.5369899      0              62.863921      2068.9907    
   1151000   311.65378     -3.3366862      0              61.883779      2095.3975    
   1152000   292.91345     -2.4004467      0              58.898189      2078.9034    
   1153000   297.80457     -4.2704115      0              58.051798      2138.4811    
   1154000   306.9659      -5.5974851      0              58.641936      2162.9088    
   1155000   302.76013     -5.5272374      0              57.832033      2066.8683    
   1156000   307.86207     -5.8604582      0              58.566506      2012.4552    
   1157000   297.44763     -3.5066926      0              58.74082       2081.5988    
   1158000   294.06563     -5.2550711      0              56.284682      2044.5236    
   1159000   288.88149     -5.6419696      0              54.812888      2132.2724    
   1160000   302.41241     -3.2941581      0              59.992344      2204.2372    
   1161000   309.10906     -2.5264258      0              62.1615        2037.0331    
   1162000   320.09734     -4.7750005      0              62.212466      2129.5596    
   1163000   312.22974     -3.8806717      0              61.460326      2016.7972    
   1164000   298.49611     -7.1682352      0              55.298694      1984.0631    
   1165000   289.20891     -3.8125605      0              56.710817      2076.0348    
   1166000   304.00957     -5.5249409      0              58.095803      2003.4518    
   1167000   295.68834     -4.1773794      0              57.701962      2095.2237    
   1168000   295.62013     -4.1803944      0              57.684673      2115.4543    
   1169000   295.94144     -6.0887294      0              55.84358       1988.2593    
   1170000   298.62338     -4.2553314      0              58.238234      2082.5284    
   1171000   289.74707     -5.7511357      0              54.884864      2049.4256    
   1172000   305.60597     -4.416885       0              59.537942      2021.5364    
   1173000   296.35549     -4.6136203      0              57.405338      2035.2983    
   1174000   295.75631     -4.012409       0              57.881157      2138.4199    
   1175000   289.39207     -4.3344851      0              56.227224      2145.2846    
   1176000   307.25083     -3.48872        0              60.81033       2117.7627    
   1177000   303.02813     -5.3729243      0              58.042431      2042.056     
   1178000   287.00748     -4.8601644      0              55.202514      2068.2638    
   1179000   303.98076     -4.9947551      0              58.61996       2101.4581    
   1180000   298.68133     -4.414983       0              58.090709      2206.2414    
   1181000   294.76215     -3.2519323      0              58.433584      2155.4809    
   1182000   300.46419     -5.4131852      0              57.465608      2023.1483    
   1183000   301.08079     -3.7634252      0              59.244406      2188.6527    
   1184000   289.06985     -6.8024757      0              53.691801      1991.1824    
   1185000   302.04926     -3.8711654      0              59.33934       2044.2354    
   1186000   308.75604     -3.5322176      0              61.081831      2160.235     
   1187000   298.39924     -4.2734088      0              58.17325       2121.8964    
   1188000   303.04632     -3.3544189      0              60.064744      2169.1728    
   1189000   300.63423     -7.3828977      0              55.531482      2042.0483    
   1190000   290.21754     -3.8304785      0              56.903978      2076.637     
   1191000   307.31401     -6.5262058      0              57.786066      2040.4187    
   1192000   299.90118     -6.6644276      0              56.096545      1964.087     
   1193000   291.80417     -4.2273293      0              56.839164      2081.1072    
   1194000   293.26076     -5.2219046      0              56.149412      2011.8799    
   1195000   298.5627      -4.2597671      0              58.221098      1994.9252    
   1196000   318.2975      -3.2928571      0              63.317952      2216.2293    
   1197000   291.78578     -4.9503672      0              56.112277      1996.9985    
   1198000   300.53166     -4.876899       0              58.016015      2075.2035    
   1199000   299.34039     -4.2833284      0              58.360286      2046.1298    
   1200000   296.76796     -6.0859179      0              56.019359      2005.9284    
   1201000   307.8867      -4.4367817      0              59.995338      2044.8134    
   1202000   294.08607     -4.629466       0              56.914566      1985.0644    
   1203000   310.88411     -4.6338295      0              60.425565      2101.8191    
   1204000   297.035       -3.8672413      0              58.293919      2106.1351    
   1205000   296.48671     -2.906111       0              59.140308      2240.0645    
   1206000   309.19431     -4.3062591      0              60.399507      2086.131     
   1207000   304.53163     -3.7364574      0              59.993538      2031.0828    
   1208000   302.25797     -5.3076403      0              57.946543      2135.712     
   1209000   305.09682     -3.4281659      0              60.420109      2137.9868    
   1210000   295.53229     -5.9223739      0              55.924311      1966.0438    
   1211000   295.40809     -4.0562474      0              57.764445      2145.1572    
   1212000   303.13259     -4.8083612      0              58.628855      2152.794     
   1213000   306.90981     -3.7149042      0              60.512778      2011.6467    
   1214000   300.75775     -4.0760014      0              58.864228      2177.8794    
   1215000   286.28622     -4.7089924      0              55.202747      2104.6135    
   1216000   302.69882     -5.323807       0              58.022634      2040.0708    
   1217000   301.81834     -3.1270145      0              60.035165      2125.7775    
   1218000   310.64525     -3.6034292      0              61.405978      2194.735     
   1219000   293.85153     -3.9738392      0              57.52111       2210.8444    
   1220000   295.57075     -3.5216502      0              58.333084      2187.2219    
   1221000   304.43469     -4.2775929      0              59.432117      2102.7105    
   1222000   304.08418     -5.8137895      0              57.822569      2151.8311    
   1223000   293.85268     -6.8467236      0              54.648467      2005.7921    
   1224000   305.00371     -6.4523189      0              57.376471      2102.3322    
   1225000   307.184       -4.6327941      0              59.65227       2018.8401    
   1226000   302.21858     -4.0362099      0              59.20973       2199.295     
   1227000   302.42104     -3.4792693      0              59.80904       2119.4382    
   1228000   290.36969     -3.8714886      0              56.894809      2016.1976    
   1229000   302.61137     -4.2730135      0              59.055126      2187.3879    
   1230000   304.8867      -6.5242646      0              57.280038      1988.0876    
   1231000   303.67042     -4.5823014      0              58.967467      2022.6074    
   1232000   307.37321     -3.3469491      0              60.977711      2169.484     
   1233000   309.51992     -2.3784485      0              62.395458      2141.4479    
   1234000   290.34151     -3.413722       0              57.346678      2071.5596    
   1235000   300.4101      -4.0239634      0              58.843512      2054.3738    
   1236000   305.12837     -4.3317918      0              59.523086      2124.681     
   1237000   308.69704     -4.201388       0              60.400313      2205.4923    
   1238000   298.61281     -4.9619298      0              57.529422      2031.0027    
   1239000   304.19095     -4.4936587      0              59.165044      2180.9584    
   1240000   297.42813     -5.5421006      0              56.701331      2108.7466    
   1241000   311.73346     -5.3882806      0              59.848859      2091.173     
   1242000   292.30405     -4.1518112      0              57.019293      2059.0063    
   1243000   307.93915     -4.0913629      0              60.351733      2148.5681    
   1244000   298.80611     -4.1253522      0              58.406452      2112.1661    
   1245000   295.79961     -5.573836       0              56.328791      2155.5182    
   1246000   297.96774     -5.0430955      0              57.31326       2227.6479    
   1247000   302.99519     -4.7337967      0              58.674665      2076.3573    
   1248000   302.15368     -3.8818356      0              59.350522      2167.0985    
   1249000   291.48547     -3.9817251      0              57.018073      2149.7826    
   1250000   294.85079     -5.1810571      0              56.523008      2005.1365    
   1251000   306.74041     -5.3899609      0              58.802272      2048.3261    
   1252000   300.92406     -7.0147982      0              55.960234      2072.537     
   1253000   289.54603     -4.6226306      0              55.971297      2128.0129    
   1254000   302.61929     -4.6391049      0              58.690692      2051.7023    
   1255000   301.22936     -5.3401076      0              57.698815      2037.4288    
   1256000   302.01468     -4.0633633      0              59.139906      2154.2282    
   1257000   296.99813     -4.4025146      0              57.75093       2074.0351    
   1258000   318.08778     -3.818971       0              62.74795       2150.1105    
   1259000   306.90136     -4.6723972      0              59.553517      2162.8908    
   1260000   301.44179     -5.0341994      0              58.049179      2017.009     
   1261000   296.06101     -3.1673245      0              58.790007      2133.4192    
   1262000   298.85013     -5.3180354      0              57.222981      2034.4196    
   1263000   293.69427     -4.5589398      0              56.903098      1976.2638    
   1264000   301.3155      -5.2083175      0              57.848633      2155.3857    
   1265000   296.76392     -3.102802       0              59.001629      2032.7847    
   1266000   310.65589     -4.4622698      0              60.549363      2065.8291    
   1267000   302.14579     -4.0016028      0              59.229104      2230.0337    
   1268000   288.41276     -4.7006103      0              55.656155      2056.6771    
   1269000   295.37717     -4.9284399      0              56.885782      2036.5461    
   1270000   299.83102     -4.9843462      0              57.761944      2008.3664    
   1271000   304.88349     -4.0987213      0              59.70491       2124.3376    
   1272000   287.85621     -3.9752761      0              56.265019      2085.8635    
   1273000   305.36562     -5.6435999      0              58.260928      2088.3826    
   1274000   287.23514     -3.9736029      0              56.13672       2114.0406    
   1275000   301.30612     -4.3004271      0              58.754561      2049.9267    
   1276000   301.8911      -2.9070293      0              60.270378      2156.3524    
   1277000   296.77257     -5.0497713      0              57.056471      1963.6746    
   1278000   287.62378     -3.364656       0              56.826999      2060.1139    
   1279000   303.15825     -4.2926725      0              59.149913      2135.9798    
   1280000   289.31461     -5.1972407      0              55.348256      1976.357     
   1281000   294.6943      -4.1604341      0              57.510883      2227.6195    
   1282000   293.96206     -4.6744449      0              56.843634      2141.6794    
   1283000   310.49241     -3.2838373      0              61.693585      2226.5372    
   1284000   299.10292     -5.2026646      0              57.391254      2057.2295    
   1285000   299.34432     -4.8957337      0              57.748704      2130.2854    
   1286000   293.09425     -6.5991313      0              54.737339      2056.582     
   1287000   299.31363     -5.6923653      0              56.945649      2058.0047    
   1288000   304.26912     -4.2086724      0              59.466388      2268.1605    
   1289000   295.61607     -4.84329        0              57.020928      2015.2344    
   1290000   293.0385      -4.6982914      0              56.626512      2058.0552    
   1291000   303.3792      -4.9974679      0              58.491356      2092.3279    
   1292000   304.60084     -4.0849496      0              59.659531      2074.6376    
   1293000   302.39597     -5.8183711      0              57.464692      1989.969     
   1294000   306.70665     -5.4837611      0              58.701407      2124.5727    
   1295000   303.79981     -5.3504685      0              58.226379      2068.5659    
   1296000   303.80089     -4.3052543      0              59.271819      2092.026     
   1297000   298.59605     -4.6865247      0              57.801321      2114.4945    
   1298000   297.66938     -5.1609664      0              57.132952      2018.9702    
   1299000   298.62096     -3.9997267      0              58.49333       2099.0799    
   1300000   294.49335     -5.3755649      0              56.253699      2096.3696    
   1301000   299.46909     -5.0394615      0              57.631086      2086.7913    
   1302000   298.63429     -3.2906152      0              59.205232      2113.3801    
   1303000   294.35565     -4.5692857      0              57.031162      2107.5741    
   1304000   309.76368     -4.1840151      0              60.640904      2175.2273    
   1305000   289.48716     -4.3648361      0              56.216772      2087.1983    
   1306000   298.67698     -3.8953556      0              58.609425      2179.9337    
   1307000   304.69577     -4.2084967      0              59.555849      2055.8867    
   1308000   306.48352     -4.4707405      0              59.667732      2062.2849    
   1309000   294.23507     -4.6982674      0              56.876945      1967.9007    
   1310000   291.82196     -5.2917578      0              55.778459      2004.6453    
   1311000   298.15529     -6.1326356      0              56.26297       2064.3185    
   1312000   309.40681     -6.016607       0              58.733628      2086.6336    
   1313000   298.72258     -5.5877192      0              56.926604      2173.3822    
   1314000   283.7611      -5.6418102      0              53.741493      2085.491     
   1315000   299.89099     -4.8745274      0              57.884312      2055.3362    
   1316000   307.09394     -5.5865092      0              58.679708      2018.499     
   1317000   288.85735     -4.7853523      0              55.664454      2044.2914    
   1318000   302.09451     -4.6896639      0              58.53031       2087.885     
   1319000   303.22638     -2.6937945      0              60.76305       2083.163     
   1320000   308.4907      -4.1396165      0              60.418904      2090.31      
   1321000   300.60651     -3.9605451      0              58.948032      2120.6704    
   1322000   302.84318     -5.2002285      0              58.176421      2083.1626    
   1323000   301.35865     -3.1754242      0              59.890555      2108.1168    
   1324000   295.21298     -3.8222116      0              57.957651      2083.575     
   1325000   297.32756     -4.3085894      0              57.913796      2016.5151    
   1326000   294.10017     -2.3019972      0              59.244984      2146.0226    
   1327000   304.054       -6.0879504      0              57.542091      2140.5431    
   1328000   304.44392     -5.562109       0              58.149532      2066.8803    
   1329000   302.71857     -6.0728119      0              57.277761      1969.9111    
   1330000   307.70232     -5.278292       0              59.115242      2027.7282    
   1331000   300.76698     -3.2085013      0              59.733658      2217.2086    
   1332000   301.17492     -2.8952735      0              60.132256      2302.7838    
   1333000   313.02141     -4.1813884      0              61.325283      2093.9745    
   1334000   303.99867     -3.2584503      0              60.360012      2068.8589    
   1335000   298.90172     -3.0498174      0              59.501995      2188.1773    
   1336000   300.97732     -3.452535       0              59.533643      2198.7819    
   1337000   293.73433     -4.0330554      0              57.437366      2050.1642    
   1338000   298.19466     -4.1426217      0              58.261224      2028.2432    
   1339000   294.90578     -3.7515888      0              57.963985      2186.4388    
   1340000   304.02015     -4.9736122      0              58.649346      2135.3691    
   1341000   300.66093     -3.8491684      0              59.070798      2141.2377    
   1342000   300.51533     -3.5063854      0              59.383111      2168.4481    
   1343000   300.62358     -4.8860757      0              58.026074      2086.8461    
   1344000   312.29226     -4.5466552      0              60.807426      2205.3531    
   1345000   305.66782     -5.4900265      0              58.477743      2119.393     
   1346000   304.52927     -4.5596179      0              59.169884      2113.9859    
   1347000   291.07052     -5.2016806      0              55.711281      2003.3928    
   1348000   303.32432     -6.466029       0              57.01131       1991.9334    
   1349000   298.19495     -4.7463571      0              57.657548      2176.1164    
   1350000   298.23347     -4.6026534      0              57.809314      2148.8097    
   1351000   299.49372     -4.6993038      0              57.976398      2037.1682    
   1352000   299.24499     -2.303848       0              60.319803      2247.9373    
   1353000   305.07469     -3.6612216      0              60.182423      2185.4548    
   1354000   302.0325      -4.0112272      0              59.19577       2105.7806    
   1355000   306.04149     -6.0804755      0              57.965493      1982.5918    
   1356000   292.41442     -5.112626       0              56.081576      2079.8633    
   1357000   291.41086     -5.4353955      0              55.54879       2072.4619    
   1358000   312.76982     -5.2172646      0              60.236757      2010.2631    
   1359000   306.61669     -5.308834       0              58.857508      2146.8212    
   1360000   284.32365     -5.463221       0              54.037807      2013.8294    
   1361000   303.61363     -4.9058744      0              58.63201       2013.089     
   1362000   298.72139     -4.0886457      0              58.425429      2074.0468    
   1363000   296.29602     -3.911596       0              58.094916      2024.0205    
   1364000   296.76281     -5.9772119      0              56.126988      1932.116     
   1365000   309.0757      -4.6268878      0              60.054056      2008.1196    
   1366000   300.28945     -4.1339957      0              58.708231      2105.7668    
   1367000   297.41621     -4.127077       0              58.113859      2106.7199    
   1368000   296.02715     -3.136206       0              58.814039      2134.1042    
   1369000   293.70688     -5.4830761      0              55.981602      2060.9363    
   1370000   308.92232     -4.9725519      0              59.676294      2068.4483    
   1371000   309.2564      -3.8113885      0              60.907371      2130.7176    
   1372000   297.48734     -5.3842146      0              56.871608      2075.3726    
   1373000   294.38111     -2.6945181      0              58.911257      2240.2521    
   1374000   290.372       -3.9736326      0              56.793147      2093.1096    
   1375000   292.66273     -5.2207596      0              56.025406      2100.2564    
   1376000   304.06391     -6.0823461      0              57.54977       1953.9299    
   1377000   303.87473     -6.1202714      0              57.472253      2184.5841    
   1378000   295.5651      -4.3384904      0              57.51506       2088.8177    
   1379000   303.15707     -5.3482572      0              58.094082      2075.9555    
   1380000   300.6039      -4.2244497      0              58.683583      2222.4254    
   1381000   301.66502     -4.9671871      0              58.162907      2058.1243    
   1382000   314.05076     -5.1052623      0              60.616823      2197.5506    
   1383000   303.0443      -5.4229498      0              57.995789      1954.4913    
   1384000   301.19008     -4.6192644      0              58.411438      2082.2224    
   1385000   309.19065     -5.6227545      0              59.082245      1969.1765    
   1386000   296.32462     -5.1513221      0              56.861175      2199.7478    
   1387000   295.86234     -4.7289479      0              57.186808      2038.3768    
   1388000   306.78893     -4.7617166      0              59.44067       2219.3468    
   1389000   313.26898     -5.0048177      0              60.553663      2096.2922    
   1390000   302.89166     -2.784278       0              60.602519      2168.0724    
   1391000   293.54341     -4.9385702      0              56.491898      2082.3177    
   1392000   289.29861     -5.6794222      0              54.862726      2033.5546    
   1393000   300.02962     -3.5643194      0              59.223532      2102.3792    
   1394000   291.18024     -4.4490182      0              56.486904      2028.7173    
   1395000   290.84854     -6.6834235      0              54.183083      1968.5895    
   1396000   305.25715     -6.1100112      0              57.771817      2056.7771    
   1397000   298.25843     -5.7697493      0              56.647441      1997.838     
   1398000   303.51475     -4.6650273      0              58.852164      2089.0351    
   1399000   296.59142     -4.2431336      0              57.825197      2149.2502    
   1400000   300.5731      -4.557463       0              58.344124      2150.5088    
   1401000   297.40196     -4.6787874      0              57.559168      2036.1641    
   1402000   306.94093     -4.5356937      0              59.698503      2138.9955    
   1403000   303.37241     -3.8977919      0              59.589613      2250.9732    
   1404000   309.2162      -5.2385451      0              59.471802      2118.007     
   1405000   297.17742     -4.5249861      0              57.66598       2175.8409    
   1406000   305.54144     -4.8157693      0              59.125552      2114.0373    
   1407000   302.58834     -3.4406008      0              59.88272       2177.6463    
   1408000   304.40739     -4.4005002      0              59.303496      2101.6451    
   1409000   309.78084     -4.5778039      0              60.250706      2121.6698    
   1410000   295.04271     -3.3627167      0              58.381512      2161.2969    
   1411000   302.45901     -3.8100626      0              59.486192      2150.3217    
   1412000   296.70123     -4.1861151      0              57.905197      2024.1255    
   1413000   300.3341      -2.8876173      0              59.963953      2124.7409    
   1414000   301.75389     -4.8330764      0              58.315617      2173.5605    
   1415000   301.10727     -3.9078585      0              59.105515      2164.4051    
   1416000   304.86046     -4.5911887      0              59.207622      2041.0839    
   1417000   307.76119     -3.8581429      0              60.54771       2150.7091    
   1418000   302.59821     -3.5456965      0              59.779688      2158.751     
   1419000   303.3407      -4.1121032      0              59.368665      2069.5983    
   1420000   298.39909     -4.156929       0              58.289698      2085.8484    
   1421000   301.73523     -6.076958       0              57.067831      2005.9324    
   1422000   303.99348     -5.5719435      0              58.045433      2118.7271    
   1423000   305.31789     -4.5910951      0              59.303443      2122.5203    
   1424000   292.95922     -5.1521668      0              56.156046      2057.7084    
   1425000   300.41778     -5.2752481      0              57.593835      2100.3626    
   1426000   308.29023     -3.5091013      0              61.007465      2156.5001    
   1427000   304.84868     -4.7278351      0              59.06851       2032.2171    
   1428000   305.25451     -4.4482943      0              59.432981      2163.5012    
   1429000   302.03784     -3.6186165      0              59.5895        2089.9841    
   1430000   301.45535     -4.1968013      0              58.889415      2046.9621    
   1431000   299.13977     -5.155487       0              57.446143      2079.569     
   1432000   293.7144      -5.0338245      0              56.432426      1989.4654    
   1433000   286.85298     -4.0492184      0              55.981128      2179.0001    
   1434000   305.97259     -4.4816774      0              59.549872      2022.5129    
   1435000   293.98178     -4.8647997      0              56.657407      2083.1272    
   1436000   296.94801     -4.1177213      0              58.025233      2086.7886    
   1437000   302.9297      -4.3847045      0              59.010053      2063.9883    
   1438000   305.08459     -4.1079167      0              59.737799      2102.7023    
   1439000   308.79694     -4.2452619      0              60.377344      2094.5494    
   1440000   290.59163     -2.8349871      0              57.977755      2106.6221    
   1441000   295.53297     -5.0460051      0              56.800823      2109.614     
   1442000   298.51466     -4.6395404      0              57.831272      1971.5706    
   1443000   301.31303     -6.0506719      0              57.005762      2123.9056    
   1444000   298.5558      -4.177427       0              58.301994      2060.8131    
   1445000   302.83175     -3.3121033      0              60.062155      2105.6291    
   1446000   291.56808     -4.6865375      0              56.330549      2112.3019    
   1447000   296.00382     -4.2686589      0              57.676705      2103.5789    
   1448000   297.23717     -6.5744214      0              55.629047      2027.1496    
   1449000   298.02455     -6.0408815      0              56.327364      2063.9462    
   1450000   298.4008      -4.2460581      0              58.200927      2124.4005    
   1451000   310.44893     -4.785794       0              60.182528      2090.7267    
   1452000   291.39699     -5.4054049      0              55.575878      1959.4705    
   1453000   303.36652     -4.0003365      0              59.485834      2085.1675    
   1454000   297.39019     -5.1134337      0              57.122057      2070.2478    
   1455000   296.27079     -4.7027907      0              57.298441      2059.6229    
   1456000   310.64242     -3.2661299      0              61.742684      2144.4132    
   1457000   302.08847     -4.8001465      0              58.418565      2037.2498    
   1458000   299.11537     -4.446493       0              58.150031      2052.4966    
   1459000   293.56223     -4.1405272      0              57.293879      2131.9133    
   1460000   312.99279     -5.8063334      0              59.694349      2150.4325    
   1461000   293.90725     -4.4044777      0              57.102131      2130.4674    
   1462000   295.13421     -4.9303146      0              56.833064      2060.5959    
   1463000   301.53838     -4.9215893      0              58.182004      2176.5266    
   1464000   298.93165     -4.6609743      0              57.897101      2108.253     
   1465000   294.54342     -3.5460364      0              58.093707      2156.1055    
   1466000   298.17214     -3.6600814      0              58.739051      2122.357     
   1467000   294.84855     -4.8298268      0              56.873771      2161.0141    
   1468000   300.04467     -3.9780992      0              58.812902      2110.2997    
   1469000   308.66765     -3.6675822      0              60.927969      2170.6661    
   1470000   295.03998     -5.1042693      0              56.639389      2105.7436    
   1471000   295.1836      -4.7287397      0              57.044973      1965.5868    
   1472000   301.62206     -2.493412       0              60.627692      2132.0706    
   1473000   298.9033      -3.7371374      0              58.815006      2060.6778    
   1474000   301.94888     -3.8653003      0              59.324198      2110.7257    
   1475000   296.81046     -4.8626613      0              57.251509      2014.8875    
   1476000   306.14178     -2.5137027      0              61.553253      2113.9549    
   1477000   304.169       -5.0214737      0              58.632635      2041.7461    
   1478000   294.71457     -2.3546993      0              59.32086       2128.2       
   1479000   295.54392     -2.2506333      0              59.598485      2116.0914    
   1480000   295.3681      -5.4852896      0              56.327035      1940.5783    
   1481000   308.87943     -4.9077957      0              59.732074      2148.5357    
   1482000   289.48767     -3.5687392      0              57.012976      2100.3049    
   1483000   304.74811     -4.376943       0              59.398356      2043.0276    
   1484000   296.0664      -6.2216552      0              55.736804      2142.0376    
   1485000   293.85015     -4.2071048      0              57.287556      2221.2097    
   1486000   310.13737     -6.0238969      0              58.879225      2127.2549    
   1487000   302.44616     -4.9464822      0              58.347083      2133.6443    
   1488000   291.86989     -5.8706163      0              55.20963       2066.3283    
   1489000   307.71434     -4.9300465      0              59.466002      2056.9334    
   1490000   298.13107     -3.8559216      0              58.534616      2044.8711    
   1491000   302.6336      -5.1082495      0              58.224541      2077.563     
   1492000   295.81894     -5.5397001      0              56.366973      2101.4419    
   1493000   306.04722     -6.0118205      0              58.035346      1957.0907    
   1494000   300.12213     -4.7401466      0              58.067064      2046.7795    
   1495000   298.06578     -3.2931219      0              59.083753      2108.4426    
   1496000   294.10865     -3.8546914      0              57.694065      2200.4721    
   1497000   301.36079     -3.839208       0              59.227219      2148.3102    
   1498000   305.4943      -4.8503617      0              59.081096      2121.7005    
   1499000   305.27385     -4.400161       0              59.485162      2054.9991    
   1500000   304.63149     -5.0818173      0              58.669077      2091.3607    
   1501000   301.84457     -4.7773094      0              58.390359      2027.3821    
   1502000   303.76852     -5.1758424      0              58.394455      2150.1814    
   1503000   288.83506     -4.7258526      0              55.719288      2043.2514    
   1504000   308.9358      -3.5967938      0              61.054873      2082.5476    
   1505000   297.50815     -4.203373       0              58.056804      2043.8451    
   1506000   301.41885     -5.5075415      0              57.571036      2006.5864    
   1507000   291.0249      -4.2046631      0              56.69875       2047.7051    
   1508000   294.05609     -3.9790364      0              57.55872       2166.1837    
   1509000   301.47636     -3.3689802      0              59.721633      2070.7505    
   1510000   302.40252     -4.9655303      0              58.318902      2140.2682    
   1511000   302.17664     -4.7978598      0              58.439302      2129.5682    
   1512000   295.58003     -5.0184207      0              56.838256      2107.8043    
   1513000   290.87969     -4.5171992      0              56.355827      2049.6406    
   1514000   299.09344     -3.5157282      0              59.076206      2189.3854    
   1515000   295.09449     -5.1648848      0              56.590181      2037.9786    
   1516000   307.43347     -3.6793917      0              60.657879      2103.0456    
   1517000   286.56419     -4.8976515      0              55.07226       2028.8788    
   1518000   303.26415     -5.1871742      0              58.277574      2207.6126    
   1519000   302.52419     -5.4980577      0              57.811837      2074.2415    
   1520000   302.24556     -4.2858938      0              58.965693      2118.7219    
   1521000   304.94003     -4.9240017      0              58.891462      2043.694     
   1522000   297.5781      -2.0192323      0              60.255583      2208.3043    
   1523000   300.29511     -4.2743204      0              58.569091      2149.4116    
   1524000   299.67199     -4.4486219      0              58.264388      2082.4273    
   1525000   297.32361     -5.5188755      0              56.702684      2156.611     
   1526000   300.99184     -6.5596501      0              56.429567      2155.6902    
   1527000   291.90866     -5.0201018      0              56.068259      2178.6388    
   1528000   303.79844     -3.7473159      0              59.829243      2110.2089    
   1529000   305.40875     -6.1637371      0              57.749816      2053.1658    
   1530000   306.77689     -4.8444922      0              59.355374      2045.1215    
   1531000   298.50915     -3.0205627      0              59.449097      2200.9038    
   1532000   295.3949      -5.2562522      0              56.56168       2071.046     
   1533000   298.60347     -4.4276903      0              58.061707      2200.1762    
   1534000   305.0165      -3.8587989      0              59.972667      2169.6371    
   1535000   301.58961     -5.016569       0              58.097745      2109.2814    
   1536000   300.29518     -5.2869638      0              57.556462      2052.6619    
   1537000   293.01636     -5.3714369      0              55.948733      2138.3399    
   1538000   304.89896     -6.0308428      0              57.776025      2038.1773    
   1539000   307.90117     -4.5495674      0              59.88558       2112.8924    
   1540000   314.3178      -4.614636       0              61.163334      2068.0432    
   1541000   294.92111     -5.002009       0              56.716773      2011.8819    
   1542000   304.21877     -4.9354433      0              58.729079      2086.2795    
   1543000   298.32637     -5.8579413      0              56.573466      1962.8876    
   1544000   300.36428     -3.702189       0              59.155698      2124.3507    
   1545000   295.0205      -4.0738335      0              57.665748      1994.2525    
   1546000   314.40685     -4.0131009      0              61.783503      2094.5841    
   1547000   304.95813     -3.3731155      0              60.446135      2118.3458    
   1548000   296.7211      -3.0758433      0              59.019626      2170.0732    
   1549000   296.90994     -3.6809152      0              58.454073      2162.5991    
   1550000   299.667       -6.2918672      0              56.420097      2129.8924    
   1551000   297.85533     -4.8247397      0              57.508093      2014.1934    
   1552000   304.64071     -5.7912757      0              57.961549      2109.6377    
   1553000   290.96368     -5.7116977      0              55.178903      2059.8216    
   1554000   305.68314     -4.694506       0              59.276469      2040.6937    
   1555000   300.67888     -3.5701657      0              59.353557      2089.8394    
   1556000   293.41452     -5.1278214      0              56.275673      2054.0097    
   1557000   292.40155     -4.3676207      0              56.823887      2122.8914    
   1558000   297.2688      -5.8442036      0              56.365885      2044.9695    
   1559000   294.62718     -4.05737        0              57.5999        2051.1186    
   1560000   304.9819      -5.1894945      0              58.634732      2060.9235    
   1561000   301.84049     -5.4669309      0              57.699884      2028.8008    
   1562000   302.76855     -4.7076901      0              58.653342      1990.7002    
   1563000   307.87886     -6.183435       0              58.247043      2060.4162    
   1564000   297.12062     -5.9461826      0              56.232897      2121.2969    
   1565000   302.30949     -4.6870067      0              58.577959      2113.7683    
   1566000   308.13709     -5.9276231      0              58.556895      2006.5616    
   1567000   304.91        -4.4210921      0              59.388087      2086.2891    
   1568000   301.67638     -4.4077975      0              58.724674      2122.2692    
   1569000   296.51733     -4.6037437      0              57.449083      2008.5445    
   1570000   301.151       -4.6454105      0              58.377114      2191.0353    
   1571000   301.66842     -6.4449789      0              56.685828      2055.2574    
   1572000   305.7698      -4.0078753      0              59.981236      2105.6895    
   1573000   302.99577     -5.4649972      0              57.943587      2019.3393    
   1574000   301.07384     -4.3969001      0              58.609477      2142.9856    
   1575000   294.74459     -3.4032884      0              58.278553      2176.1413    
   1576000   306.68422     -5.1510398      0              59.029434      1978.4053    
   1577000   309.58987     -3.657923       0              61.130622      2135.7351    
   1578000   303.64218     -5.1622247      0              58.381636      2121.9162    
   1579000   301.9349      -3.2513966      0              59.935177      2250.4856    
   1580000   302.94377     -3.7646543      0              59.633048      2196.1441    
   1581000   293.86658     -4.4320533      0              57.066046      2016.7564    
   1582000   295.65214     -4.0450893      0              57.826677      2130.781     
   1583000   306.27296     -5.1302165      0              58.964192      2096.5869    
   1584000   311.40355     -5.2725858      0              59.895512      2036.3539    
   1585000   299.82187     -4.1834854      0              58.560889      2142.1243    
   1586000   299.02496     -4.812331       0              57.765273      1945.0327    
   1587000   310.60906     -4.3650606      0              60.636773      2112.6125    
   1588000   306.26623     -3.2656432      0              60.827357      2198.3826    
   1589000   305.98013     -4.7895692      0              59.243558      2062.6941    
   1590000   308.7149      -3.5774223      0              61.028017      2089.9682    
   1591000   300.8754      -4.8786355      0              58.086215      2025.4621    
   1592000   305.57612     -4.1225929      0              59.825987      2140.773     
   1593000   298.21783     -5.3740232      0              57.03467       2079.7772    
   1594000   298.71611     -5.198238       0              57.314732      2072.8775    
   1595000   300.991       -3.7529792      0              59.236063      2084.1749    
   1596000   312.60899     -3.3789897      0              62.041373      2133.7627    
   1597000   298.00268     -4.3271477      0              58.036522      2086.9942    
   1598000   294.97687     -1.5217885      0              60.208663      2152.3158    
   1599000   299.77909     -4.5107667      0              58.224655      2066.7852    
   1600000   300.93353     -5.2285365      0              57.748478      2132.6076    
   1601000   299.17547     -5.1908846      0              57.418216      2112.1308    
   1602000   302.35845     -4.5755281      0              58.699682      2028.4903    
   1603000   306.59188     -4.6901693      0              59.470981      2091.8444    
   1604000   296.35975     -4.0171151      0              58.002734      2112.3799    
   1605000   302.4443      -5.8622766      0              57.430901      2074.1235    
   1606000   289.67482     -5.239124       0              55.381756      2053.742     
   1607000   304.01108     -4.4849973      0              59.136062      2110.9546    
   1608000   287.24452     -6.2069416      0              53.905344      1969.662     
   1609000   308.46682     -7.0299694      0              57.523553      2034.8928    
   1610000   297.42545     -4.9848545      0              57.258017      2068.0999    
   1611000   299.83253     -3.622985       0              59.12362       2151.6779    
   1612000   300.39787     -4.256442       0              58.608474      1994.0883    
   1613000   303.41496     -4.4050085      0              59.091301      2102.8944    
   1614000   304.48674     -4.3274385      0              59.393164      2090.8675    
   1615000   298.569       -4.668779       0              57.813405      2191.2237    
   1616000   294.93278     -5.4157412      0              56.305483      1959.9318    
   1617000   311.99523     -4.6613154      0              60.630606      2055.957     
   1618000   301.76746     -4.2568336      0              58.894699      2082.512     
   1619000   298.00536     -4.4322628      0              57.931967      2103.2407    
   1620000   299.02233     -3.6605505      0              58.916503      2090.6454    
   1621000   296.94033     -4.3687965      0              57.772552      2131.5844    
   1622000   306.9909      -5.1348486      0              59.109804      2060.0228    
   1623000   290.81109     -4.5168768      0              56.341793      2149.7319    
   1624000   292.68403     -5.5806633      0              55.669961      2085.2294    
   1625000   299.99452     -5.0583306      0              57.722175      2088.4304    
   1626000   306.78528     -2.604774       0              61.596849      2284.7374    
   1627000   312.34879     -4.7543212      0              60.61159       2099.6183    
   1628000   301.66081     -6.3210553      0              56.808158      2149.5715    
   1629000   309.15616     -5.0823042      0              59.615477      2116.7929    
   1630000   291.67963     -3.7648836      0              57.275547      2178.1901    
   1631000   292.8205      -3.1208256      0              58.158357      2161.7481    
   1632000   295.65273     -6.2148698      0              55.65702       1977.3439    
   1633000   295.14812     -4.5621496      0              57.204139      2088.2546    
   1634000   298.05789     -4.3459219      0              58.029302      2009.9039    
   1635000   297.62121     -6.7468985      0              55.536939      2028.2339    
   1636000   301.6656      -4.4719262      0              58.658291      2140.04      
   1637000   298.3822      -4.3570878      0              58.086003      2075.3543    
   1638000   305.88505     -4.2347537      0              59.778476      2232.3307    
   1639000   308.05822     -4.9066916      0              59.561321      2182.9157    
   1640000   292.8325      -4.7753918      0              56.506302      2037.253     
   1641000   292.4051      -5.6569424      0              55.535309      1967.2777    
   1642000   294.85        -4.9909695      0              56.712932      2017.1691    
   1643000   304.51408     -4.6981317      0              59.028192      2048.0051    
   1644000   298.99873     -4.566997       0              58.005117      1968.7973    
   1645000   285.1795      -5.7408053      0              53.939329      2012.8718    
   1646000   301.30211     -5.2708024      0              57.783344      2115.4446    
   1647000   301.82775     -4.3218537      0              58.842297      2067.2143    
   1648000   309.29327     -4.9889303      0              59.737544      2086.075     
   1649000   297.34439     -5.5522471      0              56.673659      2038.7363    
   1650000   287.93495     -4.4469385      0              55.809836      2029.9635    
   1651000   302.26125     -5.8796913      0              57.375178      2125.6717    
   1652000   300.47175     -6.3325702      0              56.547806      1999.0898    
   1653000   307.49696     -6.5309993      0              57.819558      2024.307     
   1654000   305.51107     -5.2288292      0              58.706136      2069.7356    
   1655000   292.64835     -3.6589489      0              57.584207      2182.5883    
   1656000   302.45027     -5.6398766      0              57.654548      2046.8753    
   1657000   311.88313     -3.4338087      0              61.834652      2194.4963    
   1658000   300.79644     -4.1749067      0              58.773419      2109.0427    
   1659000   303.01082     -4.5850201      0              58.826713      2105.051     
   1660000   294.32994     -4.6515935      0              56.943474      2053.5608    
   1661000   300.40854     -4.4092386      0              58.45791       2116.0967    
   1662000   302.80108     -4.5706201      0              58.79722       2051.9847    
   1663000   290.05528     -3.6017457      0              57.098753      2082.4631    
   1664000   296.49642     -3.2741352      0              58.774316      2040.6439    
   1665000   299.69487     -4.6349229      0              58.082874      2013.5672    
   1666000   309.20075     -5.2249751      0              59.482137      2098.9793    
   1667000   303.04763     -3.4860079      0              59.933428      2034.3426    
   1668000   306.36467     -3.1656925      0              60.947909      2137.6987    
   1669000   301.32323     -3.5894019      0              59.469166      2135.9542    
   1670000   297.82765     -3.7183558      0              58.608684      2112.3743    
   1671000   302.70046     -3.6924969      0              59.654287      2154.8282    
   1672000   305.19074     -5.5683344      0              58.299596      2116.5638    
   1673000   298.04908     -4.6103158      0              57.763063      2037.0611    
   1674000   295.06834     -4.0162021      0              57.733391      2159.9421    
   1675000   296.0752      -3.8528407      0              58.10746       2110.4522    
   1676000   302.1574      -5.5245027      0              57.708633      2162.8948    
   1677000   281.91235     -2.8602851      0              56.136126      2100.3887    
   1678000   307.89363     -3.6305166      0              60.803053      2110.9891    
   1679000   292.25603     -3.7883907      0              57.372664      2122.5196    
   1680000   298.99791     -5.1608699      0              57.411073      2145.469     
   1681000   307.67192     -4.842618       0              59.544554      2017.8327    
   1682000   310.56352     -3.8528964      0              61.139407      2064.0955    
   1683000   309.04868     -3.4947195      0              61.18057       2216.0442    
   1684000   301.07013     -4.9742082      0              58.031394      2133.6443    
   1685000   293.56288     -3.0223471      0              58.412196      2026.8547    
   1686000   309.1614      -4.7937597      0              59.905119      2050.3144    
   1687000   298.44406     -4.5386134      0              57.917424      2133.121     
   1688000   307.85199     -4.6851122      0              59.739743      2176.7915    
   1689000   301.01758     -5.4689864      0              57.525617      2106.6303    
   1690000   295.25888     -5.0781162      0              56.711351      1980.9729    
   1691000   296.61603     -4.7090149      0              57.364467      2111.7951    
   1692000   304.41239     -4.8324709      0              58.872571      2094.1201    
   1693000   306.82223     -3.2844666      0              60.924889      2078.4666    
   1694000   298.63488     -3.427891       0              59.068079      2108.1026    
   1695000   299.51399     -3.656806       0              59.023139      2298.6278    
   1696000   303.78761     -5.1349278      0              58.439366      2068.4603    
   1697000   303.42953     -3.2485302      0              60.250827      2159.0899    
   1698000   292.97624     -4.2184054      0              57.09337       2094.3181    
   1699000   293.6499      -4.1036611      0              57.349091      1992.9005    
   1700000   306.73855     -2.5574334      0              61.634411      2168.7119    
   1701000   301.54553     -4.42101        0              58.684079      2155.081     
   1702000   302.28858     -5.8846682      0              57.37592       2004.9351    
   1703000   301.38681     -3.432393       0              59.63948       2088.5852    
   1704000   311.7561      -4.8737573      0              60.36812       2102.0255    
   1705000   297.39754     -5.864327       0              56.372703      2047.8421    
   1706000   295.60488     -5.2350498      0              56.626827      2016.8779    
   1707000   305.97732     -4.9043887      0              59.12815       1932.8636    
   1708000   299.68671     -3.4692311      0              59.246858      2125.1602    
   1709000   301.7949      -3.9070716      0              59.250203      2023.5105    
   1710000   296.46884     -5.2189645      0              56.823715      2075.9706    
   1711000   293.81868     -5.3133024      0              56.174772      2140.3069    
   1712000   301.4551      -5.745847       0              57.340318      2043.9089    
   1713000   298.5511      -6.2112974      0              56.267141      1968.5642    
   1714000   305.92358     -3.2285601      0              60.792733      2183.411     
   1715000   292.81075     -5.0821121      0              56.195031      2071.3084    
   1716000   291.70011     -4.3048705      0              56.739846      2045.719     
   1717000   289.6567      -4.7288273      0              55.88826       2066.1565    
   1718000   312.13145     -4.8611965      0              60.459232      2175.4522    
   1719000   298.22723     -6.297432       0              56.113229      2018.7976    
   1720000   302.92989     -2.6495942      0              60.745202      2060.2876    
   1721000   295.62362     -5.7478923      0              56.117905      2052.1552    
   1722000   299.08438     -3.3814455      0              59.208592      2135.3346    
   1723000   297.64512     -6.0160289      0              56.272812      2010.4326    
   1724000   297.28199     -3.5455897      0              58.667258      2072.5485    
   1725000   295.35036     -5.2342036      0              56.574408      2025.9029    
   1726000   291.43648     -6.2324641      0              54.757083      1929.8286    
   1727000   299.08081     -4.7501043      0              57.839187      2100.8718    
   1728000   296.71076     -3.1369931      0              58.956312      2112.1946    
   1729000   298.03958     -4.3141994      0              58.057191      2071.6216    
   1730000   287.47723     -4.4011708      0              55.759814      2095.2617    
   1731000   291.92352     -4.8671851      0              56.224284      2032.3622    
   1732000   305.23846     -6.2029121      0              57.675005      1974.2605    
   1733000   299.73362     -5.5678505      0              57.158055      2019.1094    
   1734000   297.75078     -6.3500394      0              55.960913      2018.8929    
   1735000   294.89007     -4.3996663      0              57.312619      2029.7922    
   1736000   297.66075     -6.4730993      0              55.819012      1953.9159    
   1737000   298.04462     -4.7659558      0              57.60649       2064.1102    
   1738000   305.22523     -3.5906762      0              60.284472      2129.6344    
   1739000   291.67933     -4.3823305      0              56.658038      2104.0685    
   1740000   292.55925     -3.9843124      0              57.240197      2091.5015    
   1741000   320.19372     -3.9475276      0              63.060109      2090.3777    
   1742000   304.44551     -3.6749642      0              60.037009      2179.2684    
   1743000   298.18903     -5.8388652      0              56.563802      2073.9482    
   1744000   292.64651     -4.7890137      0              56.453758      2081.9177    
   1745000   306.65945     -3.0142833      0              61.161006      2065.089     
   1746000   298.13032     -4.5711597      0              57.81922       2096.3372    
   1747000   290.0203      -5.1182847      0              55.574895      2055.9477    
   1748000   316.73993     -5.8004028      0              60.484452      2172.9191    
   1749000   298.52759     -5.210349       0              57.263169      2037.0472    
   1750000   290.08653     -4.2471682      0              56.45987       2057.2714    
   1751000   304.41118     -5.3189938      0              58.385795      2151.4964    
   1752000   279.33937     -4.0213173      0              54.43664       2145.3045    
   1753000   305.92768     -2.7938408      0              61.228311      2082.4688    
   1754000   305.83385     -3.3440149      0              60.658501      2163.5911    
   1755000   304.85222     -4.1595987      0              59.637489      2278.8149    
   1756000   288.54705     -4.5752659      0              55.809603      2063.2774    
   1757000   303.49672     -5.1674722      0              58.345947      2079.8127    
   1758000   299.2506      -3.3236601      0              59.301163      2163.4955    
   1759000   290.25263     -5.4374771      0              55.304322      2110.2225    
   1760000   300.56314     -3.5300284      0              59.369473      2138.914     
   1761000   303.49618     -4.8582688      0              58.655037      2151.8635    
   1762000   306.29784     -3.6758543      0              60.423761      2081.4743    
   1763000   294.53478     -3.7297997      0              57.908135      2178.4463    
   1764000   299.757       -6.2598868      0              56.470913      2012.9169    
   1765000   307.69862     -5.1142576      0              59.278502      2098.0201    
   1766000   305.18592     -4.8381264      0              59.028795      1957.8849    
   1767000   299.24019     -3.5233789      0              59.099265      2051.7712    
   1768000   296.75166     -4.9133033      0              57.188561      2018.2966    
   1769000   301.73741     -4.5036376      0              58.641607      1967.3556    
   1770000   304.96052     -4.4402226      0              59.379529      2011.2232    
   1771000   299.40621     -5.9159016      0              56.741488      2052.1593    
   1772000   306.02769     -5.2105779      0              58.832503      2072.1508    
   1773000   300.8807      -5.846896       0              57.119062      2086.0311    
   1774000   296.73022     -6.507468       0              55.58991       1913.5654    
   1775000   285.63752     -7.172753       0              52.603233      2005.5282    
   1776000   300.61458     -4.2774001      0              58.632868      2076.9616    
   1777000   309.44602     -3.3758627      0              61.38258       2080.9643    
   1778000   295.05195     -5.2735901      0              56.472573      2022.2626    
   1779000   303.71044     -6.2854951      0              57.272648      2100.6864    
   1780000   308.31724     -5.1251978      0              59.397021      2065.4072    
   1781000   305.02086     -5.602741       0              58.229637      2142.1123    
   1782000   307.1076      -4.4795279      0              59.789548      2148.5198    
   1783000   301.65161     -4.1798985      0              58.94739       2134.177     
   1784000   299.76904     -4.8698822      0              57.863437      2055.8766    
   1785000   302.6708      -3.795791       0              59.544785      2091.8466    
   1786000   307.61192     -3.1216868      0              61.252928      2225.1747    
   1787000   296.70075     -5.0390687      0              57.052143      2057.7893    
   1788000   287.98464     -4.2684253      0              55.998747      2114.1019    
   1789000   298.22178     -3.0479051      0              59.361615      2116.0482    
   1790000   298.31781     -6.0697883      0              56.359828      1906.243     
   1791000   308.7487      -4.2741068      0              60.338404      2087.2894    
   1792000   299.52824     -4.630299       0              58.052627      2061.5843    
   1793000   298.03718     -5.55006        0              56.820828      2079.7122    
   1794000   293.70296     -3.4851686      0              57.978688      2185.1958    
   1795000   306.20261     -3.8248039      0              60.254883      2207.4588    
   1796000   305.2297      -3.9177728      0              59.958309      2140.6738    
   1797000   298.32232     -3.6615065      0              58.769054      2141.8876    
   1798000   307.99726     -5.5332149      0              58.922042      1975.4836    
   1799000   311.88618     -5.2916257      0              59.977473      2030.6675    
   1800000   296.92581     -3.3723652      0              58.765945      2036.7715    
   1801000   295.72672     -4.0402797      0              57.847093      2135.8202    
   1802000   302.60056     -4.9412822      0              58.384596      2157.0687    
   1803000   298.4003      -3.7659538      0              58.680925      2113.4702    
   1804000   296.58247     -6.359987       0              55.706471      1907.8317    
   1805000   298.52859     -4.3212684      0              58.152458      2183.0934    
   1806000   318.2454      -5.7281124      0              60.871795      2046.4212    
   1807000   303.1218      -5.1900027      0              58.244955      2016.2933    
   1808000   307.22483     -4.1052205      0              60.188388      2144.9231    
   1809000   299.09988     -4.4192871      0              58.173995      2159.6649    
   1810000   303.04512     -5.0652163      0              58.353694      2026.3388    
   1811000   303.05293     -4.3104475      0              59.110098      2156.8403    
   1812000   299.86284     -3.9353954      0              58.817553      2188.5881    
   1813000   300.93526     -4.152485       0              58.824891      2216.6972    
   1814000   307.75952     -3.215743       0              61.189761      2152.108     
   1815000   301.2139      -4.8229944      0              58.212694      2078.7323    
   1816000   302.40524     -5.3294669      0              57.955535      2054.4962    
   1817000   291.41611     -4.6106135      0              56.374669      2144.4646    
   1818000   291.18449     -6.8603338      0              54.076477      2065.1166    
   1819000   298.49773     -4.4196227      0              58.047647      2124.0855    
   1820000   291.4857      -3.0362798      0              57.963567      2191.4585    
   1821000   308.44373     -4.8005694      0              59.748121      2028.0977    
   1822000   305.3114      -4.5948728      0              59.298308      2142.9795    
   1823000   291.14274     -8.1046884      0              52.823387      1883.0021    
   1824000   292.75181     -3.1400156      0              58.124791      2070.5419    
   1825000   299.35902     -3.9481303      0              58.699384      2064.513     
   1826000   299.88887     -3.792997       0              58.965398      2107.9118    
   1827000   302.84503     -4.3377589      0              59.039278      2050.4869    
   1828000   313.92611     -4.4089463      0              61.287053      2102.3191    
   1829000   299.18321     -3.8433805      0              58.767341      2070.4132    
   1830000   304.16528     -3.6192855      0              60.034045      2067.6641    
   1831000   294.57087     -3.2781868      0              58.367299      2109.63      
   1832000   305.7621      -3.4709252      0              60.516574      2302.8926    
   1833000   297.09756     -4.3618293      0              57.812424      2063.5857    
   1834000   300.43776     -4.5218895      0              58.351373      2059.2263    
   1835000   302.29564     -6.0673335      0              57.194733      2041.0541    
   1836000   295.9032      -4.1881241      0              57.736183      2119.3179    
   1837000   302.94219     -4.8275185      0              58.569852      1958.5652    
   1838000   298.49158     -4.1197848      0              58.346196      2144.9038    
   1839000   298.6165      -3.4173527      0              59.074772      2162.0638    
   1840000   291.75968     -4.4754926      0              56.581689      2151.7341    
   1841000   298.78701     -7.3443602      0              55.183447      1987.3277    
   1842000   305.3661      -6.114836       0              57.789793      1958.4449    
   1843000   301.44457     -3.7474975      0              59.336463      2126.6651    
   1844000   302.83149     -4.1948752      0              59.179329      2150.4157    
   1845000   295.06905     -3.8468436      0              57.902899      2176.7061    
   1846000   307.35206     -3.5724963      0              60.747739      2120.8714    
   1847000   308.43092     -4.5328658      0              60.013144      2097.0266    
   1848000   302.37113     -5.6228133      0              57.65505       2095.4536    
   1849000   290.17394     -7.4624124      0              53.262919      1935.0042    
   1850000   295.80176     -5.5880697      0              56.315008      2159.949     
   1851000   305.98148     -3.6072945      0              60.426116      2186.1978    
   1852000   304.41036     -4.8418447      0              58.862773      2153.0723    
   1853000   307.42011     -5.3610083      0              58.973466      1947.8492    
   1854000   307.71992     -4.7419013      0              59.655315      2196.4893    
   1855000   300.25434     -5.5328616      0              57.302018      2065.5391    
   1856000   308.81086     -4.276644       0              60.348876      2124.7262    
   1857000   297.91555     -5.0021262      0              57.343309      2102.5881    
   1858000   299.77651     -3.4220416      0              59.312841      2103.2038    
   1859000   314.21947     -3.6040804      0              62.153312      2220.2615    
   1860000   303.35972     -5.8166698      0              57.668078      2076.5054    
   1861000   301.01566     -5.6812471      0              57.312956      2070.4633    
   1862000   301.53862     -4.0220872      0              59.081556      2128.5982    
   1863000   293.24845     -6.3121783      0              55.056563      2024.8607    
   1864000   294.00462     -5.282089       0              56.244896      2090.7002    
   1865000   305.58541     -4.5737911      0              59.376732      2121.7043    
   1866000   302.50681     -5.2646446      0              58.041612      2035.7721    
   1867000   301.07781     -5.8550238      0              57.152185      1954.4411    
   1868000   288.54552     -4.7402906      0              55.644258      1938.7756    
   1869000   297.32502     -5.1182145      0              57.103639      2037.7416    
   1870000   312.63516     -5.2540465      0              60.171793      2042.6317    
   1871000   295.51076     -3.9373937      0              57.904787      2077.8056    
   1872000   289.74391     -3.6109632      0              57.024375      2099.9533    
   1873000   304.40712     -5.2909345      0              58.413006      1984.6503    
   1874000   294.90038     -4.8883162      0              56.826128      2184.6243    
   1875000   293.30597     -4.7635218      0              56.617257      2079.9435    
   1876000   309.25257     -5.1671427      0              59.550816      2149.0696    
   1877000   300.66292     -4.3274099      0              58.592972      2170.1746    
   1878000   291.63725     -4.119292       0              56.91227       2052.4419    
   1879000   298.63468     -3.1799029      0              59.316025      2078.7127    
   1880000   298.5628      -1.7730273      0              60.707859      2120.0954    
   1881000   306.75935     -4.2003815      0              59.995815      2139.0997    
   1882000   302.9303      -5.1614591      0              58.233425      2057.518     
   1883000   291.88372     -5.1668259      0              55.916316      2101.5195    
   1884000   305.56394     -4.3643911      0              59.58164       2101.8427    
   1885000   301.78665     -4.8815623      0              58.273986      2117.142     
   1886000   296.48666     -5.9805608      0              56.065848      2106.8172    
   1887000   305.24696     -5.7787074      0              58.100987      2051.0982    
   1888000   304.46083     -4.5672125      0              59.147967      2038.6807    
   1889000   299.48457     -6.2392839      0              56.434504      2051.9348    
   1890000   299.15109     -5.4768572      0              57.127143      2091.5263    
   1891000   306.18768     -5.7807713      0              58.29579       2103.2602    
   1892000   301.77391     -4.9976233      0              58.155259      2129.3691    
   1893000   309.43359     -4.819998       0              59.935842      2057.8354    
   1894000   290.86733     -4.7527574      0              56.117681      2103.3694    
   1895000   294.6276      -4.5738175      0              57.08354       2117.5792    
   1896000   312.39272     -5.0138252      0              60.361278      2017.2216    
   1897000   288.35043     -5.4223181      0              54.921403      2020.3929    
   1898000   306.49333     -5.4010123      0              58.739513      2094.6402    
   1899000   303.59461     -5.1334101      0              58.400494      2185.7821    
   1900000   297.80254     -6.7741463      0              55.547639      2019.4698    
   1901000   298.42472     -5.7683728      0              56.683617      1982.146     
   1902000   305.08198     -3.8350299      0              60.010139      2040.089     
   1903000   296.1865      -4.7027336      0              57.28086       2096.591     
   1904000   305.11631     -2.8426026      0              61.009751      2078.5822    
   1905000   297.75229     -4.0320046      0              58.279264      2051.294     
   1906000   294.96921     -3.9082393      0              57.820608      2131.4661    
   1907000   312.56862     -5.9268166      0              59.485098      2057.2453    
   1908000   303.83868     -4.0116369      0              59.573345      2225.9327    
   1909000   300.25712     -4.0735694      0              58.761891      2058.4509    
   1910000   303.20912     -3.9604649      0              59.492767      2136.4899    
   1911000   295.59168     -4.0636823      0              57.795432      2213.5287    
   1912000   293.43402     -4.1629261      0              57.24465       2041.4306    
   1913000   299.37422     -6.1342304      0              56.516464      2032.7521    
   1914000   300.41342     -5.1003079      0              57.767862      2116.1213    
   1915000   297.03619     -3.3108338      0              58.850576      2121.5904    
   1916000   301.1916      -3.40752        0              59.623502      2220.3296    
   1917000   298.72683     -4.8938379      0              57.621374      2123.7192    
   1918000   302.8766      -2.3931689      0              60.990475      2111.1299    
   1919000   296.77526     -3.9162771      0              58.190528      2187.7377    
   1920000   310.30535     -6.0470688      0              58.891208      2014.1798    
   1921000   300.87306     -4.4288595      0              58.535501      2139.0575    
   1922000   309.76952     -4.6095784      0              60.216562      2072.3107    
   1923000   298.01794     -5.3968736      0              56.96999       2114.0107    
   1924000   298.11713     -4.7086134      0              57.679006      2090.2361    
   1925000   298.84695     -2.9938317      0              59.54652       2072.934     
   1926000   305.01126     -5.2147306      0              58.61564       2027.6619    
   1927000   299.88474     -4.1735637      0              58.583969      2142.183     
   1928000   290.43114     -3.2480812      0              57.531075      2143.3868    
   1929000   300.96825     -3.3641657      0              59.620114      2161.4703    
   1930000   303.52321     -4.0105828      0              59.508379      2026.733     
   1931000   299.95956     -5.5266515      0              57.246537      2129.9829    
   1932000   289.08146     -4.5276952      0              55.969011      2147.5787    
   1933000   291.61944     -6.7368622      0              54.290971      1889.6273    
   1934000   296.08568     -5.7846632      0              56.17783       2046.8707    
   1935000   297.34911     -5.5620472      0              56.664848      2070.4394    
   1936000   301.56877     -3.1057166      0              60.004236      2197.614     
   1937000   301.00291     -5.2276439      0              57.76389       2052.2752    
   1938000   307.03397     -6.228739       0              58.024927      2092.3346    
   1939000   298.21947     -4.3604046      0              58.048632      2062.7463    
   1940000   303.33479     -5.0536374      0              58.425893      2090.4771    
   1941000   300.46838     -8.0532776      0              54.826393      1887.5902    
   1942000   304.27233     -4.2435738      0              59.432159      2204.728     
   1943000   300.1687      -4.4989316      0              58.318026      2018.2297    
   1944000   301.19537     -4.7617646      0              58.270046      1975.3189    
   1945000   306.12923     -4.7138754      0              59.350453      1975.4807    
   1946000   301.06376     -5.0845699      0              57.919698      2147.4275    
   1947000   303.74809     -4.0801671      0              59.485857      2175.6318    
   1948000   307.05116     -3.8586687      0              60.398595      2111.0836    
   1949000   309.63245     -3.6918139      0              61.105642      2184.77      
   1950000   297.64572     -5.3886098      0              56.900357      2005.2421    
   1951000   285.85965     -6.7590408      0              53.06343       2019.742     
   1952000   293.55485     -3.4813976      0              57.951464      2190.43      
   1953000   296.08169     -1.7792751      0              60.182384      2153.0405    
   1954000   304.52266     -4.2091081      0              59.519011      2039.8587    
   1955000   306.29208     -2.5614016      0              61.537008      2157.8833    
   1956000   304.89096     -4.1862578      0              59.618937      2143.4735    
   1957000   297.64111     -3.6578763      0              58.630126      2079.3979    
   1958000   299.9677      -4.795641       0              57.979253      2022.366     
   1959000   299.4204      -5.8037072      0              56.856651      2000.081     
   1960000   298.96119     -3.1325303      0              59.431728      2062.3864    
   1961000   295.25827     -4.3630042      0              57.426335      2180.6089    
   1962000   298.39391     -3.4714578      0              58.974085      2111.7943    
   1963000   308.22767     -3.7747945      0              60.728681      2141.7608    
   1964000   300.94835     -5.0650613      0              57.915054      2042.9768    
   1965000   297.34793     -3.5014622      0              58.725186      2118.9087    
   1966000   293.05709     -6.5645236      0              54.764171      1964.763     
   1967000   310.46025     -4.2448654      0              60.725826      2080.8106    
   1968000   295.28089     -4.6162601      0              57.177815      2156.456     
   1969000   295.1996      -3.541143       0              58.235919      2153.7214    
   1970000   295.77808     -6.4841056      0              55.414017      2072.5418    
   1971000   306.44455     -5.1874687      0              58.942849      2048.5793    
   1972000   297.41266     -3.2592906      0              58.980903      2144.3902    
   1973000   297.4715      -3.6043456      0              58.648163      2036.5512    
   1974000   309.46722     -3.9135476      0              60.849332      2208.7076    
   1975000   300.94854     -3.5652507      0              59.414904      2111.7607    
   1976000   293.4747      -4.129          0              57.287089      2034.1715    
   1977000   292.96216     -5.9222447      0              55.386583      2095.9872    
   1978000   304.11909     -4.8234563      0              58.820206      1971.6538    
   1979000   294.25499     -3.8665489      0              57.712833      2055.3932    
   1980000   303.92172     -3.1170171      0              60.485343      2209.3196    
   1981000   301.02016     -5.4010335      0              57.59411       2068.478     
   1982000   294.06679     -4.2982399      0              57.241756      2160.2194    
   1983000   298.24504     -5.7740805      0              56.640309      1934.1345    
   1984000   302.11801     -5.0633496      0              58.161543      2051.0586    
   1985000   294.97742     -3.9458777      0              57.784689      2083.3323    
   1986000   293.09849     -4.6722714      0              56.665087      2107.2664    
   1987000   302.27448     -2.8867941      0              60.370844      2078.9546    
   1988000   302.82712     -6.772679       0              56.600611      2114.0916    
   1989000   306.12896     -3.6103441      0              60.453928      2153.4428    
   1990000   300.18831     -5.2046453      0              57.616415      2086.1397    
   1991000   310.48899     -5.525244       0              59.451463      2060.6633    
   1992000   302.62909     -4.3091707      0              59.022676      2183.2575    
   1993000   299.29297     -4.3909541      0              58.242737      2191.4295    
   1994000   298.82635     -4.5816711      0              57.954369      2090.8583    
   1995000   301.03184     -4.3641973      0              58.63339       2119.4989    
   1996000   291.43666     -5.4393133      0              55.550271      2149.8625    
   1997000   293.04458     -6.1037461      0              55.22233       1985.2599    
   1998000   294.13848     -4.0163095      0              57.53869       2158.0943    
   1999000   300.41249     -2.2323345      0              60.63564       2160.651     
   2000000   295.62214     -4.4214144      0              57.444074      2126.9076    
   2000101   305.5546      -4.3569847      0              59.587091      2127.515     
Loop time of 10575.4 on 16 procs for 2000000 steps with 1620 atoms

Performance: 8.170 ns/day, 2.938 hours/ns, 189.118 timesteps/s
99.7% CPU use with 16 MPI tasks x 1 OpenMP threads

MPI task timing breakdown:
Section |  min time  |  avg time  |  max time  |%varavg| %total
---------------------------------------------------------------
Pair    | 8003       | 8685.1     | 9878.4     | 607.4 | 82.13
Bond    | 0.88129    | 0.92533    | 0.96193    |   2.3 |  0.01
Neigh   | 12.544     | 12.987     | 13.427     |   9.5 |  0.12
Comm    | 645.35     | 1837.6     | 2519.7     |1319.9 | 17.38
Output  | 0.93553    | 0.9359     | 0.93731    |   0.0 |  0.01
Modify  | 21.345     | 22.391     | 23.202     |  13.3 |  0.21
Other   |            | 15.45      |            |       |  0.15

Nlocal:         101.25 ave         109 max          95 min
Histogram: 1 0 4 3 1 4 1 1 0 1
Nghost:        5085.62 ave        5118 max        5063 min
Histogram: 2 1 2 2 3 1 4 0 0 1
Neighs:        51669.9 ave       55719 max       45776 min
Histogram: 1 1 0 3 0 3 0 2 5 1

Total # of neighbors = 826719
Ave neighs/atom = 510.32037
Ave special neighs/atom = 0
Neighbor list builds = 10400
Dangerous builds = 0
comm_modify cutoff 27.58
compute myRDF all rdf 1129 cutoff 22.58
fix 2 all ave/time 1 1 1 c_myRDF[*] file ljg2_nvt_49rdf.rdf mode vector
run 0 pre yes post no
Generated 0 of 0 mixed pair_coeff terms from geometric mixing rule
WARNING: Compute rdf cutoff less than neighbor cutoff - forcing a needless neighbor list build (src/compute_rdf.cpp:179)
Neighbor list info ...
  update every 1 steps, delay 0 steps, check yes
  max neighbors/atom: 200000, page size: 2000000000
  master list distance cutoff = 27
  ghost atom cutoff = 27.58
  binsize = 13.5, bins = 4 5 4
  4 neighbor lists, perpetual/occasional/extra = 3 1 0
  (1) pair lj/cut, perpetual
      attributes: half, newton on
      pair build: half/bin/newton
      stencil: half/bin/3d
      bin: standard
  (2) pair gauss/cut, perpetual, copy from (1)
      attributes: half, newton on
      pair build: copy
      stencil: none
      bin: none
  (3) pair gauss/cut, perpetual, copy from (1)
      attributes: half, newton on
      pair build: copy
      stencil: none
      bin: none
  (4) compute rdf, occasional
      attributes: half, newton on, cut 24.58
      pair build: half/bin/newton
      stencil: half/bin/3d
      bin: standard
Per MPI rank memory allocation (min/avg/max) = 3.053e+04 | 3.053e+04 | 3.053e+04 Mbytes
   Step          Temp          E_pair         E_mol          TotEng         Press     
   2000101   305.5546      -4.3569847      0              59.587091      2127.515     
Loop time of 1.26983e-05 on 16 procs for 0 steps with 1620 atoms

uncompute myRDF
unfix 2
write_data ljg2_nvt_49/ca_md.data nocoeff nofix
System init for write_data ...
Generated 0 of 0 mixed pair_coeff terms from geometric mixing rule
Neighbor list info ...
  update every 1 steps, delay 0 steps, check yes
  max neighbors/atom: 200000, page size: 2000000000
  master list distance cutoff = 27
  ghost atom cutoff = 27.58
  binsize = 13.5, bins = 4 5 4
  3 neighbor lists, perpetual/occasional/extra = 3 0 0
  (1) pair lj/cut, perpetual
      attributes: half, newton on
      pair build: half/bin/newton
      stencil: half/bin/3d
      bin: standard
  (2) pair gauss/cut, perpetual, copy from (1)
      attributes: half, newton on
      pair build: copy
      stencil: none
      bin: none
  (3) pair gauss/cut, perpetual, copy from (1)
      attributes: half, newton on
      pair build: copy
      stencil: none
      bin: none
Total wall time: 2:56:16
