region box block 0 52.794504272175 0 54.794296100667 0 45.195295323908
units metal
dimension 3
boundary p p p
atom_style full
create_box 1 box
Created orthogonal box = (0 0 0) to (52.794504 54.794296 45.195295)
  2 by 4 by 2 MPI processor grid
create_atoms 1 random 1620 50 box
Created 1620 atoms
  using lattice units in orthogonal box = (0 0 0) to (52.794504 54.794296 45.195295)
  create_atoms CPU = 0.156 seconds
mass 1 40.078
pair_style hybrid/overlay lj/cut 25 gauss/cut 25 gauss/cut 25
pair_coeff 1 1 lj/cut 0.009507177838705264 3.7584971993521488
pair_coeff 1 1 gauss/cut 1 -0.0597999248039827 5.991246456844763 0.601172550524922
pair_coeff 1 1 gauss/cut 2 0.0726183915985775 5.919659952808235 0.9307156951487607
run 1
WARNING: No fixes with time integration, atoms won't move (src/verlet.cpp:60)
Generated 0 of 0 mixed pair_coeff terms from geometric mixing rule
Neighbor list info ...
  update every 1 steps, delay 10 steps, check yes
  max neighbors/atom: 2000, page size: 100000
  master list distance cutoff = 27
  ghost atom cutoff = 27
  binsize = 13.5, bins = 4 5 4
  3 neighbor lists, perpetual/occasional/extra = 3 0 0
  (1) pair lj/cut, perpetual
      attributes: half, newton on
      pair build: half/bin/newton
      stencil: half/bin/3d
      bin: standard
  (2) pair gauss/cut, perpetual, copy from (1)
      attributes: half, newton on
      pair build: copy
      stencil: none
      bin: none
  (3) pair gauss/cut, perpetual, copy from (1)
      attributes: half, newton on
      pair build: copy
      stencil: none
      bin: none
Per MPI rank memory allocation (min/avg/max) = 6.986 | 6.995 | 7.004 Mbytes
   Step          Temp          E_pair         E_mol          TotEng         Press     
         0   0              2.8696476e+12  0              2.8696476e+12  1.4066357e+14
         1   0              2.8696476e+12  0              2.8696476e+12  1.4066357e+14
Loop time of 0.21018 on 16 procs for 1 steps with 1620 atoms

Performance: 0.411 ns/day, 58.383 hours/ns, 4.758 timesteps/s
68.8% CPU use with 16 MPI tasks x 1 OpenMP threads

MPI task timing breakdown:
Section |  min time  |  avg time  |  max time  |%varavg| %total
---------------------------------------------------------------
Pair    | 0.0055898  | 0.0098713  | 0.021331   |   4.4 |  4.70
Bond    | 7.57e-07   | 1.1418e-06 | 1.689e-06  |   0.0 |  0.00
Neigh   | 0          | 0          | 0          |   0.0 |  0.00
Comm    | 0.056699   | 0.071069   | 0.092091   |   3.8 | 33.81
Output  | 0.094019   | 0.10966    | 0.12094    |   2.2 | 52.18
Modify  | 1.916e-06  | 2.9891e-06 | 6.292e-06  |   0.0 |  0.00
Other   |            | 0.01957    |            |       |  9.31

Nlocal:         101.25 ave         121 max          74 min
Histogram: 1 0 1 1 2 4 3 0 1 3
Nghost:        5067.62 ave        5145 max        4952 min
Histogram: 1 1 1 0 1 3 3 2 2 2
Neighs:        51690.9 ave       61778 max       36260 min
Histogram: 1 0 1 0 2 4 3 1 1 3

Total # of neighbors = 827055
Ave neighs/atom = 510.52778
Ave special neighs/atom = 0
Neighbor list builds = 0
Dangerous builds = 0
thermo 1000
neighbor 2.0 bin
neigh_modify every 1 delay 0 check yes one 200000 page 2000000000
minimize 0.0 1.0e-8 100 1000
Generated 0 of 0 mixed pair_coeff terms from geometric mixing rule
Neighbor list info ...
  update every 1 steps, delay 0 steps, check yes
  max neighbors/atom: 200000, page size: 2000000000
  master list distance cutoff = 27
  ghost atom cutoff = 27
  binsize = 13.5, bins = 4 5 4
  3 neighbor lists, perpetual/occasional/extra = 3 0 0
  (1) pair lj/cut, perpetual
      attributes: half, newton on
      pair build: half/bin/newton
      stencil: half/bin/3d
      bin: standard
  (2) pair gauss/cut, perpetual, copy from (1)
      attributes: half, newton on
      pair build: copy
      stencil: none
      bin: none
  (3) pair gauss/cut, perpetual, copy from (1)
      attributes: half, newton on
      pair build: copy
      stencil: none
      bin: none
Per MPI rank memory allocation (min/avg/max) = 2.29e+04 | 2.29e+04 | 2.29e+04 Mbytes
   Step          Temp          E_pair         E_mol          TotEng         Press     
         1   0              2.8696476e+12  0              2.8696476e+12  1.4066357e+14
       101   0             -48.301187      0             -48.301187      768.71797    
Loop time of 32.4746 on 16 procs for 100 steps with 1620 atoms

71.4% CPU use with 16 MPI tasks x 1 OpenMP threads

Minimization stats:
  Stopping criterion = max iterations
  Energy initial, next-to-last, final = 
      2869647577620.92  -48.0408591170985  -48.3011868978552
  Force two-norm initial, final = 1.8077931e+14 0.50513158
  Force max component initial, final = 1.0806113e+14 0.052547435
  Final line search alpha, max atom move = 1 0.052547435
  Iterations, force evaluations = 100 120

MPI task timing breakdown:
Section |  min time  |  avg time  |  max time  |%varavg| %total
---------------------------------------------------------------
Pair    | 0.96866    | 1.3174     | 1.4871     |  14.2 |  4.06
Bond    | 0.00014064 | 0.00097162 | 0.013165   |   0.0 |  0.00
Neigh   | 0.01005    | 0.015719   | 0.026397   |   4.1 |  0.05
Comm    | 15.556     | 16.083     | 16.711     |   9.1 | 49.52
Output  | 0.10401    | 0.10402    | 0.10403    |   0.0 |  0.32
Modify  | 0          | 0          | 0          |   0.0 |  0.00
Other   |            | 14.95      |            |       | 46.05

Nlocal:         101.25 ave         117 max          80 min
Histogram: 1 0 0 0 5 3 3 0 3 1
Nghost:         5078.5 ave        5149 max        4996 min
Histogram: 1 1 1 2 1 3 3 2 1 1
Neighs:        51671.5 ave       57623 max       39057 min
Histogram: 1 0 0 1 2 1 2 2 4 3

Total # of neighbors = 826744
Ave neighs/atom = 510.3358
Ave special neighs/atom = 0
Neighbor list builds = 7
Dangerous builds = 0
timestep 0.0005
fix 1 all nvt temp 300.0 300.0 $(100.0*dt)
fix 1 all nvt temp 300.0 300.0 0.050000000000000002776
fix removeMomentum all momentum 1 linear 1 1 1
dump 1 all custom 1000 ljg2_nvt_50/ca.traj id mol type mass x y z
dump_modify 1 sort id
run 2000000
Generated 0 of 0 mixed pair_coeff terms from geometric mixing rule
Per MPI rank memory allocation (min/avg/max) = 2.289e+04 | 2.289e+04 | 2.289e+04 Mbytes
   Step          Temp          E_pair         E_mol          TotEng         Press     
       101   0             -48.301187      0             -48.301187      768.71797    
      1000   180.15201     -44.267198      0             -6.566395       1198.2394    
      2000   299.83217     -12.592102      0              50.154428      1820.6233    
      3000   303.04618     -6.2337984      0              57.185335      2043.4981    
      4000   305.78149     -6.3009574      0              57.6906        1990.9851    
      5000   297.75183     -5.5986487      0              56.712524      2055.5954    
      6000   309.79509     -6.2158631      0              58.615629      2006.4781    
      7000   299.76037     -5.0189605      0              57.712543      2157.1294    
      8000   301.4781      -3.975439       0              59.115538      1999.6338    
      9000   297.39011     -5.1440251      0              57.09145       2061.207     
     10000   304.14737     -4.7009571      0              58.948625      2079.3462    
     11000   305.00788     -7.8451887      0              55.984474      1899.0713    
     12000   293.26758     -5.6864455      0              55.686299      1978.6222    
     13000   305.22076     -5.387055       0              58.487157      2141.8977    
     14000   305.24823     -3.8478386      0              60.032122      2090.9092    
     15000   304.5084      -3.9209772      0              59.804158      2083.7444    
     16000   302.3238      -4.2338156      0              59.034143      2124.601     
     17000   294.56216     -6.3527092      0              55.290955      2007.113     
     18000   305.32286     -6.1337976      0              57.761782      2059.7147    
     19000   302.69491     -5.8003653      0              57.545257      2076.5373    
     20000   308.41738     -3.5793468      0              60.96383       2154.6452    
     21000   295.53947     -5.3545707      0              56.493617      2137.3158    
     22000   300.43213     -5.912506       0              56.959578      2028.4341    
     23000   312.19162     -5.5728595      0              59.76016       2049.3207    
     24000   290.10902     -2.545005       0              58.166742      2107.0406    
     25000   301.5733      -3.8613871      0              59.249513      2204.2248    
     26000   306.51331     -3.672822       0              60.471885      2087.9864    
     27000   299.84742     -3.4308646      0              59.318857      2170.7752    
     28000   296.36543     -5.8607393      0              56.160299      2080.063     
     29000   305.62195     -4.1096914      0              59.848478      2111.2463    
     30000   296.00146     -4.5263392      0              57.418529      2091.7751    
     31000   290.37497     -5.4989431      0              55.268459      2135.7983    
     32000   281.67689     -4.4448137      0              54.502322      1974.7026    
     33000   302.47385     -5.8754409      0              57.42392       1974.2325    
     34000   289.66343     -7.0428443      0              53.575651      2014.1225    
     35000   295.23624     -4.2317388      0              57.55299       2180.2639    
     36000   299.81862     -3.9983512      0              58.745344      2181.8723    
     37000   303.71256     -5.2060611      0              58.352526      2134.1515    
     38000   313.50019     -4.600717       0              61.006149      2057.7901    
     39000   301.88671     -4.5559462      0              58.620543      2023.8286    
     40000   301.14818     -3.3240637      0              59.69787       2075.3052    
     41000   303.81625     -5.0847506      0              58.495536      2063.1818    
     42000   307.21395     -4.577483       0              59.713848      2206.9561    
     43000   295.09753     -4.1048895      0              57.650812      2117.7129    
     44000   310.59228     -3.8934968      0              61.104825      2110.6546    
     45000   286.03705     -4.1148999      0              55.744695      2152.9143    
     46000   307.25493     -6.1359678      0              58.163939      2094.3791    
     47000   307.31376     -5.6223529      0              58.689867      2093.4913    
     48000   291.6765      -5.4170353      0              55.62274       2039.1124    
     49000   307.55803     -3.3040175      0              61.059321      2186.0388    
     50000   308.95999     -3.5933356      0              61.063394      2152.763     
     51000   297.51993     -4.4615032      0              57.80114       2118.6703    
     52000   289.77952     -4.7049867      0              55.937804      1985.0907    
     53000   304.90972     -5.2573993      0              58.55172       2016.9676    
     54000   299.39184     -4.3234588      0              58.330922      2135.6994    
     55000   294.47592     -3.1390834      0              58.486532      2175.8967    
     56000   295.91218     -4.9342305      0              56.991955      2127.2728    
     57000   297.11464     -5.2132497      0              56.964578      2017.3033    
     58000   307.55881     -4.4584926      0              59.905009      2151.8417    
     59000   294.46556     -3.2292588      0              58.394189      2216.87      
     60000   292.85712     -5.2985656      0              55.988281      2092.9523    
     61000   292.52326     -4.3662216      0              56.850756      2069.2195    
     62000   306.94407     -5.6547892      0              58.580063      2111.9034    
     63000   308.28301     -5.299915       0              59.215141      2093.4791    
     64000   296.25541     -2.8630822      0              59.134932      2111.6165    
     65000   291.43796     -5.2591108      0              55.730745      1995.5298    
     66000   295.71834     -4.1382979      0              57.747322      2090.0325    
     67000   298.19591     -3.4852216      0              58.918885      2154.4811    
     68000   297.63477     -2.658054       0              59.628622      2150.7291    
     69000   302.51335     -5.2562666      0              58.051359      2055.1303    
     70000   300.10569     -4.7734775      0              58.030293      2093.1909    
     71000   294.59616     -5.3533351      0              56.297444      2177.9006    
     72000   293.7297      -5.9597681      0              55.509686      2068.249     
     73000   295.17325     -5.0028895      0              56.768658      2162.4461    
     74000   297.1858      -3.4676954      0              58.725023      2165.9257    
     75000   296.19693     -4.1597685      0              57.826006      2083.5967    
     76000   307.37113     -3.327032       0              60.997193      2160.335     
     77000   299.48228     -4.9711659      0              57.702143      1978.6994    
     78000   295.60807     -4.4951536      0              57.36739       2147.4851    
     79000   300.48852     -4.4769082      0              58.406977      2203.3392    
     80000   307.90987     -4.9726238      0              59.464344      2046.1579    
     81000   299.75277     -5.1424611      0              57.587452      2031.8119    
     82000   290.39772     -6.4463931      0              54.325769      1998.9801    
     83000   306.63713     -4.9294882      0              59.241131      2129.4243    
     84000   301.82477     -5.5654822      0              57.598044      2134.4536    
     85000   301.57716     -5.3092982      0              57.802411      2139.1645    
     86000   288.56609     -2.623363       0              57.76549       2079.3019    
     87000   300.85439     -3.5008788      0              59.459574      2171.0135    
     88000   303.96846     -3.036362       0              60.575779      2177.9153    
     89000   295.97667     -4.2828735      0              57.656809      2108.6002    
     90000   314.57787     -4.4352727      0              61.397122      2064.6173    
     91000   307.18919     -4.4964349      0              59.789715      2096.1645    
     92000   306.95035     -3.7080705      0              60.528097      2299.4154    
     93000   309.56149     -5.7837043      0              58.998902      1940.9296    
     94000   299.20722     -5.0315771      0              57.584168      2061.9653    
     95000   302.85668     -5.5242925      0              57.855183      2103.6041    
     96000   302.58114     -4.7836745      0              58.53814       2078.0116    
     97000   296.49386     -4.9502852      0              57.097631      2080.4953    
     98000   297.98582     -5.3279607      0              57.032181      2045.8604    
     99000   308.34516     -5.0180522      0              59.51001       2103.5499    
    100000   297.78473     -3.4279668      0              58.89009       2154.6635    
    101000   307.72239     -5.0849958      0              59.312737      1993.1022    
    102000   304.31558     -3.7294475      0              59.955336      2149.36      
    103000   300.28909     -2.8553595      0              59.986791      2154.4232    
    104000   293.22017     -3.9080319      0              57.454791      2305.2943    
    105000   303.29166     -4.3886102      0              59.081894      2084.3959    
    106000   298.1364      -5.30961        0              57.082043      2161.7304    
    107000   299.0895      -5.8627098      0              56.7284        2141.9813    
    108000   302.31516     -5.0202739      0              58.245877      2121.8183    
    109000   300.8778      -3.3357025      0              59.629648      2216.768     
    110000   298.30214     -3.3465546      0              59.079783      2169.5983    
    111000   298.41525     -6.0007186      0              56.44929       2104.9602    
    112000   298.13958     -4.6719435      0              57.720374      2001.1378    
    113000   307.16584     -3.7116052      0              60.569659      2088.9703    
    114000   298.91363     -4.7200287      0              57.834276      2061.4824    
    115000   298.46615     -4.9330741      0              57.527586      2103.2934    
    116000   301.28377     -5.6125976      0              57.437711      1894.4945    
    117000   306.38147     -4.9553988      0              59.161717      2106.28      
    118000   317.17915     -4.8234576      0              61.553312      2037.4893    
    119000   294.50459     -5.4029479      0              56.228669      2049.2371    
    120000   295.30486     -2.8057072      0              58.993383      2117.9814    
    121000   308.52472     -4.3687763      0              60.196864      2113.1264    
    122000   296.3491      -4.1818707      0              57.835751      2183.39      
    123000   304.28886     -4.2460147      0              59.433176      2166.8615    
    124000   313.86935     -3.2160715      0              62.46805       2114.4625    
    125000   303.12009     -5.7286939      0              57.705907      2104.5181    
    126000   280.333       -3.7088396      0              54.957058      2050.1461    
    127000   307.11422     -5.8467978      0              58.423662      2030.0362    
    128000   295.05179     -5.8439986      0              55.90213       1960.4846    
    129000   299.67637     -5.8915459      0              56.822379      2067.0542    
    130000   304.04832     -3.9380721      0              59.69078       2196.6594    
    131000   306.58871     -4.6661778      0              59.494307      2070.5519    
    132000   308.34057     -3.8148054      0              60.712297      2269.6026    
    133000   292.43151     -2.5582452      0              58.639533      2160.7164    
    134000   302.77932     -4.5772938      0              58.785992      2048.3004    
    135000   288.55687     -4.9812036      0              55.405721      1949.0975    
    136000   299.86074     -4.7845152      0              57.967995      2192.3658    
    137000   298.15763     -4.9535463      0              57.442549      2187.4909    
    138000   283.95617     -5.3145931      0              54.109532      2081.4857    
    139000   304.45519     -3.5597061      0              60.154293      2150.9778    
    140000   293.75562     -4.2109349      0              57.263943      2027.5862    
    141000   293.72856     -4.7637895      0              56.705425      2013.3504    
    142000   288.68942     -3.918363       0              56.496301      2046.1253    
    143000   299.48191     -4.1827106      0              58.49052       2066.4505    
    144000   307.93156     -4.2739947      0              60.167512      2172.6311    
    145000   299.146       -4.9541998      0              57.648734      2104.2229    
    146000   299.67568     -3.8114469      0              58.902334      2131.3544    
    147000   302.13473     -4.4916967      0              58.736696      1982.8943    
    148000   298.55506     -4.2550514      0              58.224216      2091.7317    
    149000   302.83276     -4.1010109      0              59.27346       2135.45      
    150000   299.76816     -7.0115962      0              55.721539      2050.9264    
    151000   290.54445     -4.6085424      0              56.194328      2153.1955    
    152000   308.25284     -4.6016123      0              59.90713       2123.8598    
    153000   290.16902     -4.4405199      0              56.283782      2046.0793    
    154000   303.85763     -4.1967489      0              59.392199      2219.9881    
    155000   294.28105     -3.9897588      0              57.595077      1955.1471    
    156000   313.82556     -3.381042       0              62.293915      2136.2442    
    157000   297.36293     -5.6365408      0              56.593247      2031.4175    
    158000   305.85548     -5.2840982      0              58.722943      2098.9656    
    159000   301.76726     -3.8799144      0              59.271576      2094.3149    
    160000   284.38008     -3.92047        0              55.592368      2109.5309    
    161000   301.21655     -3.2285626      0              59.807681      2084.5997    
    162000   297.7986      -5.0057808      0              57.315179      2087.4648    
    163000   301.33491     -4.797592       0              58.26342       1972.7449    
    164000   303.67488     -5.5456353      0              58.005068      2021.1402    
    165000   291.63673     -4.0337463      0              56.997706      2108.3629    
    166000   298.14133     -4.938007       0              57.454677      2174.5576    
    167000   297.33905     -6.0842223      0              56.140568      2031.6944    
    168000   302.36933     -4.2857815      0              58.991705      2089.6717    
    169000   295.22824     -4.3812647      0              57.401792      2057.7042    
    170000   287.01048     -4.9890106      0              55.074297      2065.546     
    171000   298.51457     -4.6600624      0              57.810731      2091.88      
    172000   293.89223     -5.4061515      0              56.097314      2003.0237    
    173000   303.09419     -4.4352663      0              58.993914      2134.4246    
    174000   300.6334      -3.6749771      0              59.239229      2220.8451    
    175000   301.4128      -4.0712919      0              59.00602       2163.5529    
    176000   293.44838     -4.2723452      0              57.138235      2171.7659    
    177000   313.49486     -5.8429749      0              59.762777      1974.9933    
    178000   293.09865     -4.2678473      0              57.069544      2004.9179    
    179000   304.31803     -4.6361134      0              59.049183      2095.3558    
    180000   288.16897     -3.6862627      0              56.619484      2039.6523    
    181000   305.48528     -3.8376267      0              60.091943      2078.9503    
    182000   304.19097     -4.856133       0              58.802572      2022.5299    
    183000   302.97931     -3.4021923      0              60.002946      2132.3727    
    184000   297.68872     -5.4679531      0              56.830014      2033.1425    
    185000   298.33499     -4.0819168      0              58.351296      2020.2466    
    186000   301.06882     -4.2148801      0              58.790447      2054.895     
    187000   294.20584     -5.3554491      0              56.213646      1990.5317    
    188000   306.56484     -2.2577519      0              61.89774       2061.8728    
    189000   298.53607     -4.7918294      0              57.683463      2148.3768    
    190000   307.12056     -5.3324619      0              58.939326      1986.9036    
    191000   304.24871     -5.4888863      0              58.181903      2121.574     
    192000   287.91088     -5.2375517      0              55.014184      2011.3509    
    193000   304.37511     -4.8539568      0              58.843285      2038.7997    
    194000   286.67312     -4.041686       0              55.951022      2172.4577    
    195000   291.7201      -5.4152004      0              55.6337        2108.8172    
    196000   301.83131     -5.4833842      0              57.681511      2026.0197    
    197000   299.87888     -3.8569674      0              58.899338      2067.1059    
    198000   294.7698      -3.4134491      0              58.273668      2222.348     
    199000   312.12543     -5.3127191      0              60.006447      2083.2915    
    200000   306.42242     -5.1241752      0              59.001511      2157.2856    
    201000   300.10646     -5.7542084      0              57.049723      2092.3155    
    202000   284.11138     -3.3650522      0              56.091555      2109.7867    
    203000   307.1928      -5.283334       0              59.003571      1930.8114    
    204000   297.28466     -4.644666       0              57.56874       2069.1738    
    205000   300.50497     -5.9558215      0              56.931507      2102.8101    
    206000   292.05484     -6.2525039      0              54.866448      2043.8121    
    207000   312.35057     -4.1831824      0              61.183101      2044.177     
    208000   297.86128     -4.0752703      0              58.258808      2119.8603    
    209000   305.45173     -4.117389       0              59.805159      2043.4397    
    210000   303.66449     -5.0528596      0              58.495669      2107.8308    
    211000   307.74354     -5.1087307      0              59.293429      2084.978     
    212000   305.00443     -5.3465105      0              58.48243       2125.5168    
    213000   305.94658     -4.4182703      0              59.607836      2158.4035    
    214000   305.09717     -5.6688623      0              58.179486      2168.2681    
    215000   303.11806     -4.1097162      0              59.32446       2081.2174    
    216000   287.52323     -3.6930119      0              56.477599      2113.0331    
    217000   302.74789     -4.9493756      0              58.407333      2144.7847    
    218000   294.69756     -4.4052304      0              57.266769      2143.2456    
    219000   289.02199     -2.6071873      0              57.877074      2194.6793    
    220000   304.6781      -4.4663534      0              59.294296      2196.5138    
    221000   291.71873     -4.4766444      0              56.571968      2062.6687    
    222000   288.85294     -2.5036936      0              57.945189      2197.2822    
    223000   303.36832     -2.951265       0              60.535283      2190.5395    
    224000   293.55273     -5.1622054      0              56.270212      2068.3033    
    225000   295.99851     -5.2244011      0              56.719851      1994.8025    
    226000   304.54108     -3.5523907      0              60.179583      2145.7068    
    227000   308.2576      -4.5547368      0              59.955002      2134.8718    
    228000   296.75235     -4.0154032      0              58.086606      2116.4929    
    229000   297.87841     -2.9968345      0              59.340829      2138.5173    
    230000   301.94855     -3.4487849      0              59.740645      2079.7553    
    231000   296.23551     -4.1836928      0              57.810156      2084.5733    
    232000   308.00007     -5.348415       0              59.10743       2061.1341    
    233000   305.39556     -4.2679066      0              59.642887      2062.6549    
    234000   307.4728      -3.9859833      0              60.359519      2101.0288    
    235000   293.0397      -3.1889495      0              58.136106      2080.513     
    236000   302.32446     -3.1123708      0              60.155726      2052.7948    
    237000   304.03593     -4.3337692      0              59.292492      2200.3467    
    238000   298.11102     -4.7106303      0              57.675712      2086.1073    
    239000   302.86586     -4.8571461      0              58.524252      2122.3767    
    240000   298.03986     -4.7050726      0              57.666377      1988.6642    
    241000   300.65248     -5.0276547      0              57.890543      2118.3955    
    242000   297.05708     -4.3305109      0              57.835271      2210.8418    
    243000   302.74622     -6.4406734      0              56.915687      2171.783     
    244000   299.71134     -5.2614519      0              57.459792      2086.3509    
    245000   307.43959     -4.5559308      0              59.782622      2125.248     
    246000   299.5991      -3.1608458      0              59.53691       2147.1947    
    247000   301.66835     -4.8493978      0              58.281394      2115.5817    
    248000   305.75013     -3.8306878      0              60.154308      2132.0126    
    249000   304.33611     -4.2486214      0              59.440459      2043.1509    
    250000   295.04335     -5.1329699      0              56.611394      2067.4882    
    251000   294.12572     -6.2547333      0              55.297595      2066.2041    
    252000   298.97234     -3.6506391      0              58.915952      2092.8561    
    253000   294.12305     -3.9778797      0              57.573891      2071.5332    
    254000   308.89543     -4.3487097      0              60.294509      2135.3157    
    255000   299.78934     -2.6149592      0              60.122608      2156.2678    
    256000   299.92672     -4.0689714      0              58.697345      2095.3457    
    257000   291.36373     -3.0224344      0              57.951886      2105.9907    
    258000   293.17213     -3.6619256      0              57.690844      2133.0501    
    259000   306.55499     -4.4301308      0              59.723299      2060.2611    
    260000   293.96451     -3.6990923      0              57.8195        2031.9307    
    261000   299.59343     -4.370368       0              58.3262        2080.5015    
    262000   308.12352     -3.6179789      0              60.863699      2141.2356    
    263000   297.08353     -3.4784272      0              58.69289       2094.9663    
    264000   301.50658     -4.0681305      0              59.028807      2140.306     
    265000   293.84342     -6.180126       0              55.313126      1998.022     
    266000   292.30129     -6.3612524      0              54.809274      2099.7842    
    267000   303.13159     -5.697582       0              57.739425      2095.0731    
    268000   310.27162     -3.2029757      0              61.728241      2210.8353    
    269000   297.77585     -5.0571908      0              57.259009      1993.0355    
    270000   305.0007      -4.3942027      0              59.433958      2179.9409    
    271000   297.30766     -3.9147262      0              58.303493      2116.1005    
    272000   300.20318     -3.0801683      0              59.744004      2213.9559    
    273000   296.73927     -3.629235       0              58.470037      2043.9876    
    274000   296.0266      -2.6643275      0              59.285802      2167.5429    
    275000   299.39849     -5.5908217      0              57.064951      2033.9456    
    276000   295.24033     -5.6494795      0              56.136106      2098.0685    
    277000   310.46559     -4.050031       0              60.921777      2199.7937    
    278000   306.9552      -3.8502452      0              60.386936      2196.096     
    279000   303.98559     -3.1716796      0              60.444046      2155.5813    
    280000   303.03493     -5.4349958      0              57.981783      2143.3722    
    281000   288.27909     -4.0460553      0              56.282738      2086.9689    
    282000   296.70296     -4.9691518      0              57.122522      2149.8599    
    283000   292.73979     -4.1181113      0              57.144181      2191.309     
    284000   301.21897     -4.2528828      0              58.783866      2039.8173    
    285000   294.28711     -4.6564945      0              56.92961       2089.4104    
    286000   289.60834     -5.1818651      0              55.425102      1989.4476    
    287000   304.95093     -4.5279974      0              59.289747      2076.5477    
    288000   304.72908     -4.4927626      0              59.278554      2134.6655    
    289000   288.00466     -4.6108829      0              55.660478      2123.9849    
    290000   297.83192     -5.6204425      0              56.707492      2135.012     
    291000   280.92551     -4.3195474      0              54.470344      2120.3618    
    292000   298.26996     -4.7440339      0              57.675569      2108.6351    
    293000   292.97779     -5.8450037      0              55.467096      1988.2377    
    294000   307.48808     -4.6764973      0              59.672201      2229.044     
    295000   302.50121     -2.9293826      0              60.375703      2324.9292    
    296000   294.00474     -5.5949996      0              55.932011      2138.8342    
    297000   297.76813     -4.6224934      0              57.692091      1997.4763    
    298000   294.04173     -5.2294399      0              56.305311      1975.4292    
    299000   299.18162     -4.9568152      0              57.653572      2053.2215    
    300000   295.51635     -5.388141       0              56.455209      2138.8508    
    301000   307.47099     -4.0937906      0              60.251332      2019.0159    
    302000   298.83225     -6.0842998      0              56.452975      2115.1081    
    303000   291.12759     -4.1734955      0              56.751407      2104.5911    
    304000   300.04388     -4.9540583      0              57.836777      2147.6803    
    305000   296.01372     -2.6177315      0              59.329704      2194.447     
    306000   301.52739     -2.924025       0              60.177269      2193.0372    
    307000   286.06863     -2.9847951      0              56.88141       2237.1117    
    308000   295.84764     -4.947265       0              56.965414      1992.5198    
    309000   296.97915     -3.3940189      0              58.755454      2190.3052    
    310000   297.58527     -4.6658291      0              57.610487      2020.6779    
    311000   289.49973     -3.5283587      0              57.055879      2206.4142    
    312000   298.03877     -3.9276048      0              58.443617      2015.1088    
    313000   291.16057     -3.4975863      0              57.43422       2059.8981    
    314000   310.89742     -5.2336427      0              59.828537      2061.8603    
    315000   295.52684     -5.1551549      0              56.690389      2060.8533    
    316000   295.43954     -4.784288       0              57.042987      2128.332     
    317000   305.62496     -5.6176884      0              58.341113      2104.8104    
    318000   285.54646     -3.3985297      0              56.358399      2194.6194    
    319000   303.46999     -4.1722807      0              59.335545      2005.6275    
    320000   306.54386     -6.1449795      0              58.006121      2029.8493    
    321000   300.74255     -4.5103543      0              58.426692      2135.8097    
    322000   300.12792     -3.1123681      0              59.696054      2206.545     
    323000   303.92288     -4.0374215      0              59.56518       2090.8099    
    324000   306.46239     -4.9164458      0              59.217606      2073.8607    
    325000   299.34564     -5.0268248      0              57.617889      2022.3567    
    326000   304.37656     -4.8699422      0              58.827602      2058.8093    
    327000   306.44825     -6.3484985      0              57.782594      2081.0499    
    328000   310.66378     -4.2063441      0              60.806941      2150.224     
    329000   294.21487     -5.022311       0              56.548674      2017.4214    
    330000   306.81852     -4.209932       0              59.998646      2100.0688    
    331000   307.66606     -4.4837827      0              59.902163      2099.1225    
    332000   301.85509     -5.6298178      0              57.540053      2094.8657    
    333000   301.10302     -4.0752531      0              58.937231      2075.0122    
    334000   292.70811     -5.4751032      0              55.780559      2065.8453    
    335000   287.6727      -5.2913631      0              54.910528      2115.4743    
    336000   306.0731      -3.9374425      0              60.115141      2135.5074    
    337000   303.92638     -5.2944313      0              58.308903      2033.5023    
    338000   295.09175     -4.1943721      0              57.56012       2023.1731    
    339000   309.73631     -3.673007       0              61.146185      2163.5988    
    340000   310.19922     -4.4731969      0              60.442868      2119.3375    
    341000   295.57134     -5.2859193      0              56.568939      2062.4951    
    342000   299.98797     -4.4300309      0              58.349105      2172.1583    
    343000   301.36624     -3.394241       0              59.673326      2242.227     
    344000   301.77116     -3.5698748      0              59.582433      2193.3207    
    345000   302.42678     -4.6093318      0              58.680178      2156.3308    
    346000   306.08918     -4.5350248      0              59.520924      2095.9813    
    347000   294.79898     -3.4134261      0              58.279798      2029.8475    
    348000   305.05407     -4.0701516      0              59.769177      2156.537     
    349000   293.47793     -5.1348802      0              56.281884      2014.4337    
    350000   300.15868     -4.6014003      0              58.213459      1947.198     
    351000   304.23381     -2.4272901      0              61.240382      2196.3861    
    352000   292.72601     -4.7154905      0              56.543919      2065.6483    
    353000   303.09981     -2.9324006      0              60.497955      2189.0561    
    354000   303.53146     -3.4158431      0              60.104845      2089.361     
    355000   292.61896     -4.3187037      0              56.918302      2036.7142    
    356000   299.37236     -3.8280196      0              58.822285      2075.5618    
    357000   295.25998     -4.9141775      0              56.87552       2034.0444    
    358000   293.02525     -4.8396678      0              56.482363      2041.6865    
    359000   309.14556     -4.0743759      0              60.621188      2105.7364    
    360000   300.44504     -4.7268982      0              58.147889      2112.8716    
    361000   290.52063     -3.1712245      0              57.62666       2114.7819    
    362000   293.669       -5.0148421      0              56.441908      2054.6137    
    363000   312.22202     -5.0232885      0              60.316093      2145.5972    
    364000   302.60909     -5.3049678      0              58.022693      2008.4404    
    365000   305.38718     -5.6087449      0              58.300294      2118.1774    
    366000   288.37683     -3.6857529      0              56.663493      2120.1155    
    367000   293.55764     -6.4931518      0              54.940293      2042.2118    
    368000   301.1668      -4.2269861      0              58.798845      2065.1938    
    369000   303.88522     -5.1393291      0              58.455393      2138.325     
    370000   296.70709     -3.3518624      0              58.740676      2229.7371    
    371000   302.73139     -4.5941773      0              58.75908       2121.1281    
    372000   291.54662     -6.1671608      0              54.845434      2041.205     
    373000   302.95156     -3.8439757      0              59.555357      2188.4901    
    374000   299.28861     -5.002522       0              57.630256      2071.3121    
    375000   298.33662     -6.0011872      0              56.432366      2058.8142    
    376000   299.3496      -3.5180101      0              59.127531      2075.4478    
    377000   294.39572     -3.718516       0              57.890317      2059.0211    
    378000   297.81926     -3.5334653      0              58.791818      2130.7692    
    379000   297.0242      -4.2895502      0              57.869349      2123.9005    
    380000   295.82044     -4.3510304      0              57.555956      2119.7123    
    381000   304.30446     -3.5878425      0              60.094614      2175.039     
    382000   301.08659     -3.3920284      0              59.617017      2172.6175    
    383000   298.14711     -3.6505226      0              58.743371      2139.4248    
    384000   307.47471     -3.9162717      0              60.42963       2093.1071    
    385000   300.19849     -5.9784089      0              56.844782      1998.2854    
    386000   301.59942     -3.1588126      0              59.957553      2209.3986    
    387000   299.05947     -3.262105       0              59.322721      2118.0918    
    388000   310.8009      -4.0335677      0              61.008413      2086.3202    
    389000   304.06963     -4.0074071      0              59.625906      2094.1571    
    390000   305.53671     -4.5435386      0              59.396792      2146.0128    
    391000   298.53315     -4.919033       0              57.555648      2118.7729    
    392000   290.54107     -5.625688       0              55.176474      2017.4254    
    393000   292.93108     -4.5425418      0              56.759782      2054.7393    
    394000   304.45025     -4.2408406      0              59.472125      2185.8963    
    395000   299.90702     -3.8304735      0              58.93172       2140.878     
    396000   301.08605     -4.6012756      0              58.407657      2020.9371    
    397000   299.91469     -3.0951393      0              59.668661      2130.9535    
    398000   300.57878     -2.3602998      0              60.542475      2230.5727    
    399000   298.3205      -4.7321916      0              57.697988      2049.2619    
    400000   292.73032     -4.3670845      0              56.893227      2058.4958    
    401000   302.01369     -3.8391814      0              59.36388       2046.4644    
    402000   294.35885     -5.1151128      0              56.486003      2083.876     
    403000   298.632       -5.033819       0              57.46155       2123.9735    
    404000   307.36881     -3.5566325      0              60.767107      2073.8768    
    405000   282.21768     -2.9667139      0              56.093594      2187.4682    
    406000   302.57302     -4.4914852      0              58.828628      2113.6102    
    407000   296.67948     -4.3001508      0              57.786609      2060.5625    
    408000   301.76276     -3.1498606      0              60.000688      2217.3397    
    409000   295.81312     -1.723562       0              60.181892      2213.7023    
    410000   296.51569     -5.6215865      0              56.430897      2018.4412    
    411000   295.78794     -5.3812547      0              56.518931      2046.674     
    412000   304.6935      -5.3218416      0              58.442031      2123.6958    
    413000   296.55653     -3.7830287      0              58.278001      2179.1178    
    414000   297.17501     -4.4189619      0              57.771499      2078.9082    
    415000   309.99728     -3.9101532      0              60.963651      2063.9141    
    416000   308.54779     -3.9813864      0              60.58908       2081.888     
    417000   308.84111     -4.2501177      0              60.381734      2116.3178    
    418000   294.02068     -4.829028       0              56.701319      2104.4018    
    419000   295.86304     -4.5651254      0              57.350776      2134.7034    
    420000   308.69833     -4.2275561      0              60.374415      2109.0782    
    421000   299.974       -3.3449684      0              59.431242      2191.2993    
    422000   297.46981     -5.4810525      0              56.771102      2036.9742    
    423000   301.3722      -4.814959       0              58.253856      2072.0728    
    424000   302.96655     -4.2183373      0              59.184131      2090.1125    
    425000   302.19327     -4.9772634      0              58.263379      2131.3586    
    426000   305.55714     -5.1124501      0              58.832157      2112.3557    
    427000   297.99339     -5.0036434      0              57.358082      2068.8123    
    428000   294.13336     -5.6058201      0              55.948107      2059.7848    
    429000   298.61418     -4.7836991      0              57.707939      2083.0163    
    430000   295.91257     -5.5690696      0              56.357197      2074.5204    
    431000   300.31331     -3.9745962      0              58.872622      2084.2225    
    432000   312.94268     -4.3758688      0              61.114326      2093.2866    
    433000   299.21294     -3.00009        0              59.616852      2172.0921    
    434000   309.35432     -6.2332545      0              58.505996      1967.0322    
    435000   299.06954     -5.3990774      0              57.187856      2145.3914    
    436000   312.7203      -6.1876063      0              59.25605       2121.6808    
    437000   301.63165     -4.9834421      0              58.13967       2042.9536    
    438000   306.27336     -4.4029549      0              59.691538      2198.3801    
    439000   296.14531     -5.1092602      0              56.865712      2092.3512    
    440000   293.35285     -5.2803068      0              56.110281      2075.9715    
    441000   307.62572     -5.3684412      0              59.009062      2093.9579    
    442000   300.75899     -4.9614254      0              57.979062      2077.8902    
    443000   303.39204     -3.7673163      0              59.724195      2043.5325    
    444000   303.17171     -4.229475       0              59.215929      2062.7429    
    445000   310.80284     -4.2745895      0              60.767796      2120.7125    
    446000   306.16513     -3.2344771      0              60.837365      2172.5348    
    447000   306.39971     -3.4390238      0              60.681909      2183.7686    
    448000   306.55722     -5.3897251      0              58.76417       2045.1174    
    449000   309.93464     -5.8404698      0              59.020226      2041.1847    
    450000   289.72534     -4.740432       0              55.89102       2103.6625    
    451000   294.84704     -4.515042       0              57.18824       2076.3541    
    452000   301.30875     -5.2576877      0              57.79785       2084.352     
    453000   295.88911     -5.5573969      0              56.363961      2137.3881    
    454000   301.65525     -3.3297394      0              59.798311      2186.7339    
    455000   302.97214     -5.9740673      0              57.429571      2006.2627    
    456000   292.49317     -3.3426603      0              57.868022      2170.9002    
    457000   298.52492     -6.2357366      0              56.237222      1950.6433    
    458000   292.25755     -5.9457191      0              55.215653      1973.0374    
    459000   301.74686     -5.3497545      0              57.797467      2075.1834    
    460000   293.56713     -3.8669912      0              57.56844       2117.0739    
    461000   293.92077     -4.5841427      0              56.925296      2067.1465    
    462000   308.25888     -6.2876258      0              58.222381      2087.9293    
    463000   309.39223     -5.8848672      0              58.862318      2126.5964    
    464000   308.5652      -5.1673889      0              59.406722      2044.994     
    465000   309.71091     -5.2187852      0              59.595091      2087.5958    
    466000   297.55771     -5.6571282      0              56.613421      2166.6957    
    467000   297.72084     -4.7557376      0              57.54895       2088.8004    
    468000   296.4052      -5.473148       0              56.556213      2055.4908    
    469000   301.66578     -3.7708068      0              59.359447      2132.3796    
    470000   305.97981     -4.8709096      0              59.16215       1991.157     
    471000   300.91954     -2.5759949      0              60.398091      2088.1897    
    472000   300.11911     -4.5406         0              58.265979      2093.485     
    473000   291.65704     -4.559946       0              56.475756      2033.8725    
    474000   309.92119     -5.3060784      0              59.551803      2171.129     
    475000   289.08802     -5.8732301      0              54.624849      2002.8573    
    476000   294.75687     -3.5747716      0              58.109639      2154.7665    
    477000   304.45802     -5.7540806      0              57.960511      2067.1897    
    478000   301.22031     -6.4311656      0              56.605863      2072.935     
    479000   292.8967      -4.1038312      0              57.191298      2147.6097    
    480000   312.21147     -4.259065       0              61.078109      2086.0133    
    481000   298.87245     -3.1462568      0              59.399431      2203.5406    
    482000   303.07539     -5.1293378      0              58.295907      2030.1084    
    483000   295.79179     -4.4520128      0              57.448978      2157.9718    
    484000   297.96193     -5.4669979      0              56.888142      2083.9695    
    485000   303.10238     -2.0768681      0              61.354026      2216.9698    
    486000   297.39365     -4.4418969      0              57.79432       2079.5729    
    487000   308.6073      -5.503853       0              59.079068      2103.172     
    488000   286.98655     -6.6151997      0              53.4431        1978.9533    
    489000   311.20425     -4.3297182      0              60.796672      2107.4734    
    490000   299.68232     -5.1486893      0              57.566481      2170.2322    
    491000   302.84507     -4.7534795      0              58.623566      2072.5736    
    492000   308.5348      -4.6565885      0              59.911161      2063.0289    
    493000   295.34127     -3.9427068      0              57.864002      2052.7836    
    494000   316.21403     -5.5048916      0              60.669907      2053.3806    
    495000   287.94046     -4.2261551      0              56.031772      2035.5074    
    496000   295.74539     -4.5720832      0              57.319199      2123.2553    
    497000   290.18219     -4.0268172      0              56.700241      2181.6701    
    498000   299.09297     -3.8994236      0              58.692414      2168.4919    
    499000   299.77796     -4.2716448      0              58.463542      2055.0255    
    500000   301.27766     -4.5128837      0              58.536147      2164.8308    
    501000   286.45082     -4.3019301      0              55.644255      2085.0072    
    502000   303.74247     -3.9054788      0              59.659368      2187.9175    
    503000   305.23551     -4.5716995      0              59.305599      2223.0619    
    504000   296.58235     -4.6135992      0              57.452834      2175.8958    
    505000   298.35312     -4.8584861      0              57.578521      2023.3919    
    506000   291.51438     -3.1536633      0              57.852185      2073.4866    
    507000   294.92638     -6.1955328      0              55.524351      1986.4409    
    508000   301.32075     -5.7672732      0              57.290775      2045.5285    
    509000   298.93026     -4.1306667      0              58.427119      2165.3164    
    510000   301.31321     -3.564011       0              59.492459      2118.0811    
    511000   299.09062     -3.9989959      0              58.592348      2165.3595    
    512000   288.48247     -4.0651673      0              56.306186      2158.5317    
    513000   296.59153     -5.1485996      0              56.919756      1993.1242    
    514000   298.95176     -4.0430346      0              58.519251      2090.5075    
    515000   299.61482     -5.1195685      0              57.581476      2046.1506    
    516000   302.77677     -6.1415701      0              57.221183      2026.7481    
    517000   292.31314     -5.529325       0              55.643682      1970.3839    
    518000   298.94812     -4.5776616      0              57.983861      2139.4661    
    519000   301.90561     -4.789979       0              58.390464      2118.0462    
    520000   288.48783     -3.6640745      0              56.708401      2133.4338    
    521000   300.81277     -4.6319471      0              58.319796      2157.7867    
    522000   301.51976     -5.1345721      0              57.965123      2152.2792    
    523000   301.34711     -4.881729       0              58.181837      2151.3273    
    524000   299.95387     -5.4130159      0              57.358982      2111.8847    
    525000   299.23929     -6.1167713      0              56.505685      2210.1778    
    526000   293.39544     -5.4547408      0              55.944761      2197.6711    
    527000   301.69818     -4.1548166      0              58.982217      2114.9524    
    528000   298.39891     -4.596037       0              57.850551      2062.4507    
    529000   301.12065     -5.4670479      0              57.549125      2048.1762    
    530000   311.66643     -5.4688007      0              59.754312      2044.5219    
    531000   306.87443     -4.8489005      0              59.371379      2112.5292    
    532000   303.61879     -6.5621383      0              56.976826      2044.5619    
    533000   293.04001     -4.4727035      0              56.852417      2127.9293    
    534000   298.9575      -5.5807477      0              56.982737      2106.0874    
    535000   300.36628     -5.4741444      0              57.384159      2058.126     
    536000   296.67302     -5.7162069      0              56.3692        2023.2248    
    537000   289.0922      -3.6566626      0              56.84229       2056.9527    
    538000   299.849       -5.7712644      0              56.978787      2064.4437    
    539000   309.16354     -4.2682971      0              60.43103       2095.1474    
    540000   295.63435     -3.2706321      0              58.597412      2167.7752    
    541000   301.43156     -4.1495387      0              58.9317        2055.1737    
    542000   295.68554     -4.2549721      0              57.623784      2181.8008    
    543000   299.103       -5.6352571      0              56.958678      2102.9223    
    544000   305.20675     -4.643477       0              59.227803      2039.5613    
    545000   297.42219     -4.8983361      0              57.343853      2149.6114    
    546000   291.52693     -3.778991       0              57.229483      2164.3731    
    547000   303.5991      -3.805731       0              59.729114      2107.2425    
    548000   305.07514     -3.0454138      0              60.798325      2084.5621    
    549000   303.87584     -4.0469951      0              59.545763      2092.9616    
    550000   299.08386     -3.6126802      0              58.977249      2123.9101    
    551000   290.33502     -3.6976769      0              57.061364      2049.4167    
    552000   303.00691     -5.5193538      0              57.891561      2045.2467    
    553000   293.45061     -3.6388111      0              57.772237      2147.6281    
    554000   301.19944     -4.5083435      0              58.524319      2098.4989    
    555000   290.30239     -3.2191821      0              57.533031      2172.3395    
    556000   287.74077     -4.7865119      0              55.429625      2037.5461    
    557000   307.25792     -5.8070456      0              58.493488      2066.9479    
    558000   300.90009     -4.2502933      0              58.719724      2058.325     
    559000   300.35959     -3.3903307      0              59.466574      2254.4358    
    560000   299.07819     -3.4740815      0              59.114663      2103.4475    
    561000   296.10098     -4.6008009      0              57.364894      2072.4385    
    562000   300.78565     -3.177725       0              59.768343      2086.6949    
    563000   300.36797     -6.0913209      0              56.767337      2123.9613    
    564000   294.26568     -5.7808853      0              55.800735      2094.4463    
    565000   292.52426     -5.6728634      0              55.544324      1939.5008    
    566000   303.29187     -4.890739       0              58.57981       2152.2429    
    567000   301.62158     -5.9363556      0              57.184648      2072.446     
    568000   294.04565     -4.128531       0              57.407041      2136.2411    
    569000   304.90674     -4.9927744      0              58.815722      2091.3874    
    570000   303.49336     -4.4994609      0              59.013254      2047.4737    
    571000   301.29561     -5.3655428      0              57.687245      2055.8613    
    572000   306.41389     -3.8001387      0              60.323763      2203.5719    
    573000   305.32999     -4.2902462      0              59.606826      2084.944     
    574000   294.59286     -4.9113793      0              56.73871       2011.6115    
    575000   303.36506     -3.3207795      0              60.165086      2237.1258    
    576000   308.46524     -4.5866867      0              59.966506      1992.5857    
    577000   299.18659     -3.8520469      0              58.759381      2125.5505    
    578000   300.90695     -3.2774832      0              59.693969      2156.8896    
    579000   299.74769     -4.9222696      0              57.806581      2030.4971    
    580000   305.52179     -5.1884496      0              58.74876       2101.1445    
    581000   312.77967     -3.6208526      0              61.835229      2099.3168    
    582000   292.03569     -4.9940159      0              56.120927      2149.9503    
    583000   312.75669     -4.4134643      0              61.037809      2053.9466    
    584000   313.00504     -4.2631571      0              61.240088      2165.6202    
    585000   308.75887     -4.9780831      0              59.636558      2051.0883    
    586000   290.8503      -4.008481       0              56.858393      1999.7572    
    587000   299.82539     -4.2554495      0              58.489662      2071.926     
    588000   292.77184     -4.7542562      0              56.514744      2056.8302    
    589000   303.83205     -5.470184       0              58.113409      2091.4798    
    590000   291.12272     -3.7104203      0              57.213465      2273.5582    
    591000   307.42489     -4.234134       0              60.10134       2183.4639    
    592000   294.22599     -4.4930189      0              57.080293      2134.5278    
    593000   297.17527     -4.9715682      0              57.218947      2104.3834    
    594000   300.72448     -3.2312644      0              59.702001      2172.3247    
    595000   301.30328     -5.2272594      0              57.827132      2054.9408    
    596000   299.55066     -4.9462443      0              57.741375      2004.332     
    597000   299.19953     -3.5545899      0              59.059546      2170.4492    
    598000   299.71367     -5.2864213      0              57.435309      2097.4026    
    599000   298.25886     -4.2917711      0              58.125508      2153.6429    
    600000   298.47262     -3.418142       0              59.043873      2116.9303    
    601000   291.23167     -5.2894496      0              55.657236      1939.4982    
    602000   296.46377     -5.0309703      0              57.010647      2076.4731    
    603000   301.45962     -2.2546761      0              60.832435      2137.9436    
    604000   305.57361     -5.3590031      0              58.589051      2097.2491    
    605000   297.2373      -4.3378186      0              57.865678      1930.627     
    606000   296.77766     -5.5047895      0              56.602517      2022.0341    
    607000   305.94644     -5.5041168      0              58.52196       2069.9604    
    608000   290.93793     -3.5705891      0              57.314625      2110.7877    
    609000   303.07059     -4.5126194      0              58.911622      2107.9728    
    610000   293.05146     -4.5121524      0              56.815363      2010.6691    
    611000   288.07173     -5.5592155      0              54.726182      1954.6821    
    612000   301.89895     -4.9666056      0              58.212444      2101.9537    
    613000   301.65232     -5.2678538      0              57.859584      2064.1889    
    614000   298.1454      -6.1372695      0              56.256267      2021.5866    
    615000   301.36703     -4.4550523      0              58.612681      2027.3879    
    616000   297.7366      -3.5929881      0              58.714997      2082.9005    
    617000   305.74216     -4.3607879      0              59.622539      2145.2098    
    618000   287.25535     -4.5188136      0              55.595737      2037.1538    
    619000   300.96933     -6.4915219      0              56.492984      1983.4387    
    620000   296.95853     -4.4815415      0              57.663616      2114.5943    
    621000   299.40912     -4.6782648      0              57.979733      2140.713     
    622000   294.08026     -3.066311       0              58.476504      2188.7869    
    623000   304.03726     -5.9653193      0              57.661219      2020.6254    
    624000   295.63362     -4.1629445      0              57.704945      2061.6511    
    625000   291.65852     -4.8813274      0              56.154686      2098.1407    
    626000   295.14009     -6.5689819      0              55.195626      2141.2955    
    627000   300.00741     -5.8043304      0              56.978873      2099.6616    
    628000   305.53416     -4.9061934      0              59.033605      2171.3111    
    629000   292.66297     -5.1675803      0              56.078636      2038.7446    
    630000   307.87089     -5.6034846      0              58.825326      2131.3799    
    631000   302.24963     -6.6159988      0              56.636439      2007.6892    
    632000   306.14372     -4.127599       0              59.939762      2159.7035    
    633000   300.66143     -3.624646       0              59.295425      2096.1497    
    634000   295.88518     -2.7788963      0              59.141639      2177.7749    
    635000   298.67941     -1.7804317      0              60.724858      2111.6132    
    636000   300.00659     -4.6904764      0              58.092555      2039.5008    
    637000   290.67286     -6.5732188      0              54.256523      1976.8238    
    638000   307.06026     -4.5902698      0              59.668898      2079.8725    
    639000   303.27034     -5.6160211      0              57.850022      2208.963     
    640000   307.37411     -4.4248495      0              59.9           2070.637     
    641000   296.82558     -5.6773111      0              56.440023      2101.8206    
    642000   298.60138     -6.0306821      0              56.458277      1921.0317    
    643000   297.50979     -4.0344211      0              58.2261        2096.1549    
    644000   302.32663     -5.2288907      0              58.039661      2085.3374    
    645000   302.8016      -4.3739316      0              58.994018      2162.6602    
    646000   296.61654     -4.8502976      0              57.22329       2078.8897    
    647000   307.00445     -5.585284       0              58.662204      1971.1051    
    648000   299.78283     -3.5468631      0              59.189342      2136.7354    
    649000   301.78793     -5.8307005      0              57.325116      2113.9772    
    650000   288.70782     -5.5269556      0              54.891557      2094.7404    
    651000   295.78104     -3.8733546      0              58.025388      2143.003     
    652000   302.61867     -4.3249755      0              59.004691      2144.1522    
    653000   297.38403     -5.0904752      0              57.143728      2067.6751    
    654000   307.07499     -4.1840122      0              60.07824       2204.8692    
    655000   293.53557     -4.4179036      0              57.010924      2014.3782    
    656000   305.42201     -5.3076761      0              58.608652      2070.4662    
    657000   289.23349     -4.3346569      0              56.193864      2013.0052    
    658000   299.52385     -5.0995228      0              57.582484      2032.1502    
    659000   289.39989     -5.9404644      0              54.622879      1965.7828    
    660000   300.68902     -5.4269671      0              57.498879      2106.8583    
    661000   303.10625     -5.0810576      0              58.350647      2042.9567    
    662000   300.85599     -4.3402043      0              58.620582      2193.6471    
    663000   301.90357     -4.7807059      0              58.39931       2134.1253    
    664000   301.57443     -4.2206164      0              58.890521      2119.4639    
    665000   317.91367     -3.8532335      0              62.677253      2122.2319    
    666000   284.814       -3.6326537      0              55.970992      2055.9073    
    667000   302.95053     -4.4248105      0              58.974307      2012.2627    
    668000   292.53563     -4.8447447      0              56.374823      2126.7806    
    669000   294.25068     -5.8596337      0              55.718847      2004.2526    
    670000   307.33996     -5.5264657      0              58.791235      2118.449     
    671000   300.65861     -4.808229       0              58.111253      2091.168     
    672000   303.04837     -5.776813       0              57.642778      2020.2712    
    673000   296.84927     -4.6766526      0              57.44564       1999.1443    
    674000   294.24034     -3.0206828      0              58.555632      2067.4618    
    675000   298.77502     -5.1141303      0              57.411168      2054.6497    
    676000   297.893       -3.8671297      0              58.473586      2174.4624    
    677000   302.02142     -4.0288279      0              59.175852      2020.9913    
    678000   302.71544     -3.6201888      0              59.729729      2139.9802    
    679000   296.04793     -3.8627833      0              58.091811      2064.2864    
    680000   297.75903     -3.3395907      0              58.973088      2166.9476    
    681000   298.89148     -4.1832411      0              58.36643       2227.074     
    682000   308.14141     -3.3973087      0              61.088115      2133.5624    
    683000   310.39834     -3.9516481      0              61.006088      2149.5707    
    684000   301.08293     -4.7203491      0              58.28793       2087.516     
    685000   293.89296     -4.7388387      0              56.76478       2177.9203    
    686000   302.39454     -4.7345473      0              58.548215      2029.1313    
    687000   297.45267     -3.0225387      0              59.226028      2074.7243    
    688000   300.06123     -2.1600484      0              60.634418      2158.1298    
    689000   308.23342     -5.0119951      0              59.492682      2032.6129    
    690000   309.85735     -5.4126246      0              59.431897      2090.39      
    691000   300.96756     -6.2778024      0              56.706333      1988.7862    
    692000   297.98902     -4.2168863      0              58.143923      2017.3908    
    693000   293.16981     -5.0076451      0              56.344639      2120.4463    
    694000   291.63112     -5.4081466      0              55.622131      2061.9179    
    695000   301.00342     -3.9797459      0              59.011895      2058.8262    
    696000   303.31548     -4.5872028      0              58.888286      2126.6093    
    697000   307.8033      -6.6360986      0              57.778567      1961.3075    
    698000   308.9422      -4.660774       0              59.992232      2150.4147    
    699000   286.01701     -4.0651737      0              55.790227      2075.9414    
    700000   299.09357     -5.7852863      0              56.806675      2063.2631    
    701000   300.08334     -4.1855712      0              58.613523      2146.388     
    702000   297.96538     -5.659922       0              56.69594       2141.624     
    703000   296.21397     -3.821789       0              58.167552      2150.8215    
    704000   303.11378     -2.7695721      0              60.663708      2160.1725    
    705000   302.35698     -4.0481774      0              59.226726      2148.8195    
    706000   303.82276     -4.9074464      0              58.674203      2069.5154    
    707000   298.50467     -4.8293937      0              57.639327      2095.0349    
    708000   300.56711     -4.7975724      0              58.10276       2150.0377    
    709000   300.37783     -5.1746532      0              57.686069      2112.9811    
    710000   294.08896     -3.311538       0              58.233098      2138.2905    
    711000   312.95049     -7.7460375      0              57.745791      2034.3447    
    712000   300.44864     -5.2333162      0              57.642223      2018.4702    
    713000   311.2548      -5.0368458      0              60.100124      2087.4864    
    714000   312.05216     -5.9580551      0              59.345779      2121.1273    
    715000   302.82896     -4.8245101      0              58.549166      2095.9381    
    716000   294.16552     -5.1079033      0              56.452754      2010.8652    
    717000   294.25802     -4.9607703      0              56.619246      2102.1119    
    718000   296.70744     -3.5909967      0              58.501615      2277.9587    
    719000   315.59737     -4.2998329      0              61.745915      2142.0827    
    720000   306.28639     -5.4256791      0              58.67154       2096.4754    
    721000   297.61284     -3.1753889      0              59.106698      2156.1853    
    722000   307.9524      -3.8121086      0              60.63376       2121.0459    
    723000   291.48309     -5.7112982      0              55.288002      2013.0646    
    724000   294.18323     -4.8528263      0              56.711538      2137.3603    
    725000   304.15201     -4.3225453      0              59.328007      2091.9728    
    726000   300.18027     -4.0860258      0              58.733352      2142.7518    
    727000   300.61769     -3.6018127      0              59.309105      2148.4534    
    728000   301.11681     -4.2152257      0              58.800144      2032.7162    
    729000   293.03675     -4.8898654      0              56.434572      2112.5822    
    730000   302.70999     -4.3694118      0              58.979365      2119.3801    
    731000   288.53953     -4.3747311      0              56.008563      2075.1577    
    732000   301.23261     -4.5645191      0              58.475085      2043.0249    
    733000   301.53484     -5.4043828      0              57.698469      1991.444     
    734000   299.48444     -3.4644454      0              59.209316      2215.5974    
    735000   301.93919     -4.8215325      0              58.365938      2215.3258    
    736000   305.01341     -3.7875874      0              60.043233      2146.4124    
    737000   297.39483     -4.8608698      0              57.375593      2020.5104    
    738000   301.89364     -4.6217279      0              58.55621       2158.899     
    739000   306.31407     -4.2183443      0              59.884667      2031.8447    
    740000   302.59345     -4.8015246      0              58.522865      2226.8977    
    741000   296.90664     -4.2278624      0              57.906436      2058.3717    
    742000   300.87799     -5.4723794      0              57.493012      1938.5625    
    743000   298.86693     -3.9336821      0              58.610851      2125.2828    
    744000   307.88225     -3.8238584      0              60.607329      2062.9148    
    745000   289.98016     -3.2603521      0              57.424427      2153.9549    
    746000   297.4076      -5.2511997      0              56.987936      2075.693     
    747000   306.83704     -4.7371338      0              59.475322      2149.8907    
    748000   298.01543     -4.6435333      0              57.722804      2082.7583    
    749000   303.65407     -3.5272888      0              60.019058      2123.9642    
    750000   293.46675     -5.8557271      0              55.558698      2133.0312    
    751000   298.80824     -4.7169417      0              57.815309      2161.2593    
    752000   302.69264     -3.2148956      0              60.130252      2197.6285    
    753000   293.5211      -4.8543642      0              56.571435      2093.2136    
    754000   293.19603     -4.0610401      0              57.29673       2078.7914    
    755000   302.06297     -3.4398333      0              59.773541      2117.4721    
    756000   305.21735     -4.9798608      0              58.893637      2094.064     
    757000   291.45105     -4.373392       0              56.619204      2132.8153    
    758000   290.95846     -6.0761328      0              54.813377      2075.652     
    759000   290.98547     -5.4076386      0              55.487523      1992.7622    
    760000   298.87466     -4.6171369      0              57.929014      2062.4503    
    761000   299.91106     -5.3126312      0              57.450409      2017.875     
    762000   296.69692     -3.2601809      0              58.830229      2090.2267    
    763000   309.30951     -4.7152794      0              60.014595      2151.6508    
    764000   300.67888     -4.1436403      0              58.780083      2141.716     
    765000   305.53664     -5.2853477      0              58.654969      2016.0616    
    766000   302.78164     -3.8044366      0              59.559337      2143.2872    
    767000   304.78203     -5.8586465      0              57.923751      2059.961     
    768000   296.42604     -5.5078992      0              56.525822      2063.268     
    769000   300.93438     -3.0228878      0              59.954304      2090.3129    
    770000   305.17487     -4.4323674      0              59.432241      2158.6516    
    771000   293.69601     -4.4741581      0              56.988245      2048.5777    
    772000   292.59067     -4.9437816      0              56.287304      2137.6528    
    773000   293.46165     -4.4686949      0              56.944664      2159.0223    
    774000   306.80466     -6.4850339      0              57.720645      2059.1459    
    775000   308.52445     -5.8072541      0              58.758329      2050.826     
    776000   298.81408     -3.6218395      0              58.911633      2142.0607    
    777000   312.45904     -6.2009567      0              59.188027      2148.7304    
    778000   299.86508     -4.6940818      0              58.059335      2026.6323    
    779000   303.00718     -5.066028       0              58.344943      2175.1732    
    780000   306.6225      -5.6355518      0              58.532005      2095.0554    
    781000   291.58756     -3.9092467      0              57.111916      2079.2085    
    782000   293.37184     -6.0878824      0              55.306681      2084.469     
    783000   309.81653     -5.1797801      0              59.6562        2184.1181    
    784000   301.08329     -5.7171929      0              57.291163      2086.3715    
    785000   291.84248     -6.8108496      0              54.263661      1973.4194    
    786000   296.81294     -5.2594266      0              56.855263      2196.3143    
    787000   303.7172      -4.3245481      0              59.235011      2068.1554    
    788000   291.31862     -2.9300152      0              58.034866      2054.597     
    789000   300.26505     -4.8411694      0              57.995952      2064.4153    
    790000   296.74694     -3.3688408      0              58.732037      2184.5669    
    791000   302.82927     -5.6054247      0              57.768314      2064.5656    
    792000   307.89363     -1.9475192      0              62.48605       2234.6932    
    793000   305.44668     -5.1213965      0              58.800095      2088.9748    
    794000   298.6015      -3.8622439      0              58.626742      2127.5693    
    795000   303.77506     -4.6855803      0              58.886087      2111.4689    
    796000   294.41004     -3.1987629      0              58.413066      2049.6179    
    797000   299.53509     -4.7564204      0              57.927939      2045.0343    
    798000   298.33286     -4.8757946      0              57.556972      2090.2005    
    799000   300.73173     -5.3655466      0              57.569237      2110.6465    
    800000   295.82622     -3.9552319      0              57.952964      2086.1704    
    801000   300.85953     -5.3407407      0              57.620788      1980.9982    
    802000   293.99439     -4.4314647      0              57.093382      2116.8459    
    803000   303.05387     -5.358529       0              58.062214      2045.4605    
    804000   307.19458     -2.8474758      0              61.439802      2217.4969    
    805000   298.49776     -3.5742999      0              58.892976      2057.9848    
    806000   298.64559     -4.3021516      0              58.19606       2168.5538    
    807000   311.77181     -4.3450193      0              60.900144      2117.6445    
    808000   303.02366     -4.0786305      0              59.33579       2189.0156    
    809000   299.64735     -4.787364       0              57.920489      2075.8776    
    810000   297.20563     -5.7724288      0              56.424439      2138.5984    
    811000   302.13524     -5.7283372      0              57.500161      2080.6147    
    812000   303.7096      -5.4511544      0              58.106815      2058.8955    
    813000   295.16863     -3.7746939      0              57.995888      2359.68      
    814000   298.25035     -4.78193        0              57.633569      2137.3843    
    815000   291.32432     -5.8020256      0              55.164048      1955.7679    
    816000   296.06581     -4.6409818      0              57.317353      1987.7829    
    817000   298.6606      -4.2777054      0              58.223648      2106.8498    
    818000   301.33807     -2.5222102      0              60.539464      2232.9675    
    819000   300.04168     -4.5485092      0              58.241866      2076.0328    
    820000   294.79376     -5.3551474      0              56.336984      2168.2276    
    821000   309.52906     -4.7035596      0              60.07226       2076.7064    
    822000   302.76286     -5.8493904      0              57.510452      2130.1422    
    823000   300.15414     -6.0461805      0              56.767729      2126.7774    
    824000   301.50329     -4.0809723      0              59.015277      2149.2655    
    825000   302.56453     -4.1804116      0              59.137925      2107.0859    
    826000   291.97754     -4.6734795      0              56.429295      1982.6597    
    827000   293.86757     -6.0837877      0              55.414518      2094.3776    
    828000   304.99258     -5.4519483      0              58.374512      2117.0195    
    829000   300.33498     -5.0332063      0              57.818548      2002.1215    
    830000   300.90924     -5.2234282      0              57.748504      2057.0693    
    831000   304.6313      -6.060084       0              57.690771      1990.2492    
    832000   293.24304     -5.4263027      0              55.941306      2188.7326    
    833000   308.24586     -3.3447626      0              61.162518      2224.9832    
    834000   302.45356     -4.9400703      0              58.355043      2162.5715    
    835000   302.09088     -6.0291231      0              57.190093      2047.6887    
    836000   302.19128     -5.5530369      0              57.68719       2046.0028    
    837000   302.12853     -4.5633478      0              58.663746      2160.1726    
    838000   293.94346     -3.9805008      0              57.533687      2152.0644    
    839000   290.91017     -5.6502291      0              55.229175      2101.246     
    840000   307.12078     -3.3989373      0              60.872896      2216.8337    
    841000   303.21245     -4.4149875      0              59.038941      2095.3774    
    842000   294.69456     -4.2944091      0              57.376961      2089.7404    
    843000   301.33653     -5.1445734      0              57.916778      2051.8564    
    844000   297.39871     -4.3896557      0              57.847619      2000.8497    
    845000   302.35119     -5.4715356      0              57.802156      1991.6765    
    846000   298.72581     -3.6202107      0              58.89479       2113.5513    
    847000   304.04294     -3.8609238      0              59.766803      2119.6648    
    848000   293.03705     -3.5823989      0              57.742102      2163.2183    
    849000   303.06277     -4.1075027      0              59.315102      2150.7984    
    850000   303.60285     -3.0637217      0              60.471907      2261.2238    
    851000   300.33959     -5.5179477      0              57.334772      2023.4739    
    852000   298.07569     -4.2194312      0              58.159517      2052.4755    
    853000   301.10737     -6.1891294      0              56.824265      2092.6999    
    854000   306.23769     -4.2878806      0              59.799147      2082.5216    
    855000   296.01195     -4.8946756      0              57.05239       2091.1991    
    856000   290.5889      -4.2624705      0              56.549701      2088.9011    
    857000   305.32251     -4.1657058      0              59.729799      2075.6229    
    858000   293.69519     -2.9920952      0              58.470136      2150.1927    
    859000   307.61874     -6.1169637      0              58.25908       2097.0329    
    860000   299.28489     -5.7454733      0              56.886527      2112.2515    
    861000   301.14294     -4.3530022      0              58.667837      2164.6393    
    862000   298.54701     -4.2487574      0              58.228825      2070.5848    
    863000   303.92862     -5.2130505      0              58.390752      2103.2562    
    864000   298.05925     -5.3663662      0              57.009141      2177.1566    
    865000   293.3755      -5.9170516      0              55.478278      2141.7501    
    866000   307.46358     -5.1626661      0              59.180906      2029.0191    
    867000   288.09632     -4.6412294      0              55.649315      2043.3848    
    868000   297.25486     -5.7150596      0              56.492111      2064.7761    
    869000   298.95911     -6.1932653      0              56.370557      2060.9072    
    870000   293.20669     -4.8162057      0              56.543797      2115.3304    
    871000   303.71506     -3.6126703      0              59.94644       2106.6425    
    872000   305.75208     -5.8254206      0              58.159983      2083.2162    
    873000   301.33838     -5.8902091      0              57.171529      2064.4256    
    874000   300.88413     -5.2371072      0              57.729569      2133.86      
    875000   299.63579     -4.2865238      0              58.418909      2046.2972    
    876000   305.65021     -6.0529757      0              57.911108      2026.6057    
    877000   292.49766     -3.5135828      0              57.698039      2198.5707    
    878000   297.8068      -3.8290489      0              58.493628      2137.159     
    879000   283.5362      -4.7091337      0              54.627103      2049.3864    
    880000   308.28592     -4.1637055      0              60.351959      2063.3401    
    881000   308.25983     -4.8121752      0              59.69803       2006.4253    
    882000   293.56171     -6.4547756      0              54.979521      1913.2307    
    883000   289.6079      -3.7721262      0              56.834748      2144.4982    
    884000   293.55752     -5.3011055      0              56.132316      2078.2276    
    885000   304.43036     -3.3031499      0              60.405653      2205.6334    
    886000   305.29883     -3.6290801      0              60.261469      2149.5299    
    887000   304.78894     -4.5326726      0              59.251171      2191.4399    
    888000   306.51038     -2.7792523      0              61.364842      2202.9795    
    889000   299.75791     -3.595841       0              59.135149      2124.9649    
    890000   295.09791     -4.0060663      0              57.749716      2091.4591    
    891000   296.63154     -6.2312952      0              55.845431      2047.3938    
    892000   303.46417     -4.4797817      0              59.026826      2068.0854    
    893000   292.31475     -4.4252588      0              56.748084      2147.8224    
    894000   311.31142     -5.7961356      0              59.352682      2174.1187    
    895000   299.49926     -5.1864197      0              57.490442      2099.5702    
    896000   299.24572     -5.7734608      0              56.850342      2111.8458    
    897000   296.54234     -6.491272       0              55.566788      1965.7702    
    898000   291.36788     -5.3751845      0              55.600006      2219.6283    
    899000   305.29461     -4.610451       0              59.279216      2202.4738    
    900000   316.50967     -6.0370624      0              60.199606      2110.364     
    901000   301.96312     -3.8664158      0              59.326063      2145.9978    
    902000   303.06278     -5.7798181      0              57.642789      1973.1738    
    903000   307.04862     -5.0483306      0              59.208402      2091.2239    
    904000   308.54658     -5.9446324      0              58.625582      2061.085     
    905000   295.21143     -5.6854906      0              56.094047      2148.6521    
    906000   298.2806      -5.4643811      0              56.95745       2018.4409    
    907000   309.75312     -4.1639342      0              60.658775      2127.7125    
    908000   306.67417     -5.1900915      0              58.98828       1912.9043    
    909000   304.82704     -3.8988337      0              59.892985      2173.2493    
    910000   291.16971     -5.3533744      0              55.580344      2077.1107    
    911000   295.21078     -5.3361414      0              56.443261      2075.0078    
    912000   307.08506     -3.0650081      0              61.19935       2188.6457    
    913000   300.57992     -4.4794835      0              58.42353       2120.3199    
    914000   300.91495     -5.4719951      0              57.50113       2088.4674    
    915000   297.87676     -4.6697164      0              57.667602      2110.7744    
    916000   297.20545     -6.7652002      0              55.43163       1978.8673    
    917000   293.15833     -6.7160716      0              54.633809      1961.1034    
    918000   304.85556     -4.1672044      0              59.630581      2182.1237    
    919000   296.0857      -5.3986404      0              56.563858      1970.862     
    920000   302.38445     -2.7998532      0              60.480798      2034.3995    
    921000   295.7333      -3.7570729      0              58.131677      2127.5113    
    922000   301.01858     -6.9475619      0              56.047252      2070.0036    
    923000   304.39625     -4.8697         0              58.831965      2091.0213    
    924000   295.77966     -5.2743228      0              56.62413       2054.5593    
    925000   304.32033     -4.5041118      0              59.181666      2066.0234    
    926000   291.56422     -4.3035811      0              56.712696      2149.8591    
    927000   310.37299     -5.6314793      0              59.320951      2135.1256    
    928000   300.16802     -5.5317092      0              57.285106      1992.7864    
    929000   298.77367     -3.8134996      0              58.711516      2096.3538    
    930000   307.61639     -5.0766805      0              59.29887       2037.1212    
    931000   303.07835     -5.454421       0              57.971444      1993.4457    
    932000   311.4119      -4.7418794      0              60.427965      2071.9513    
    933000   308.88793     -4.9176399      0              59.724008      2106.6311    
    934000   303.88511     -4.8181082      0              58.77659       2124.2101    
    935000   305.41999     -4.0201276      0              59.895778      2195.5287    
    936000   295.96318     -5.2593006      0              56.677557      2129.2531    
    937000   294.79786     -5.2291179      0              56.46387       1981.8217    
    938000   310.28864     -4.9165818      0              60.018197      2051.414     
    939000   296.74741     -4.374674       0              57.726301      2140.9612    
    940000   301.23463     -4.8618273      0              58.178199      2117.02      
    941000   306.74902     -5.592388       0              58.601646      2083.0991    
    942000   298.41476     -4.5743086      0              57.875598      2153.1774    
    943000   300.67226     -3.3226496      0              59.599689      2113.8518    
    944000   290.43416     -3.7465692      0              57.033219      2105.3737    
    945000   292.47977     -2.4091205      0              58.798757      2201.5706    
    946000   307.25588     -5.2333184      0              59.066789      2117.3682    
    947000   285.96859     -4.3962211      0              55.449048      2141.6154    
    948000   298.65663     -6.0671353      0              56.433387      2062.496     
    949000   302.04825     -5.7307577      0              57.479536      2005.8677    
    950000   303.79994     -4.3870904      0              59.189784      2063.3576    
    951000   294.93446     -4.4892039      0              57.232373      2110.6104    
    952000   303.1055      -4.2885668      0              59.14298       2060.2536    
    953000   304.19038     -4.1445956      0              59.513987      2116.5274    
    954000   289.37918     -6.0792163      0              54.479794      2099.3568    
    955000   314.68298     -3.9242221      0              61.930171      2127.013     
    956000   294.67544     -4.8974572      0              56.769914      2201.2826    
    957000   288.77014     -5.0231504      0              55.408404      2122.3434    
    958000   299.1867      -3.878901       0              58.732551      2162.0384    
    959000   299.35245     -4.2197929      0              58.426345      2065.3904    
    960000   300.21874     -4.8205488      0              58.006879      2130.8775    
    961000   311.68694     -5.2212254      0              60.006178      2066.2882    
    962000   303.1867      -4.5947629      0              58.853777      2120.9892    
    963000   297.41708     -4.8588628      0              57.382257      1978.2732    
    964000   295.91788     -3.6506695      0              58.276709      2137.9892    
    965000   301.23413     -4.8623371      0              58.177585      2098.5195    
    966000   303.13145     -3.3114716      0              60.125505      2074.117     
    967000   304.112       -4.0029842      0              59.639196      2049.9721    
    968000   308.77232     -5.5162201      0              59.101234      2034.7806    
    969000   310.41927     -5.0022425      0              59.959873      2105.6295    
    970000   295.43652     -4.562026       0              57.264617      2161.0034    
    971000   300.96686     -4.4124191      0              58.571571      2225.2581    
    972000   298.50041     -5.2838203      0              57.184009      2015.9079    
    973000   305.82616     -4.5213677      0              59.479538      2163.298     
    974000   299.75828     -4.1814176      0              58.549649      2179.9266    
    975000   308.16583     -6.8846935      0              57.605839      2004.7136    
    976000   299.0333      -4.9168939      0              57.662456      2006.2766    
    977000   306.27606     -5.952373       0              58.142684      1974.0788    
    978000   283.99371     -5.2882491      0              54.143731      2018.6192    
    979000   297.92868     -3.6175092      0              58.730674      2056.1261    
    980000   297.6484      -5.9982855      0              56.291243      1981.026     
    981000   303.34955     -4.1551433      0              59.327476      2122.6197    
    982000   297.89566     -4.8507004      0              57.490573      2182.1426    
    983000   301.68764     -4.7505466      0              58.384281      2204.8165    
    984000   306.12093     -3.9337391      0              60.128853      2105.5064    
    985000   307.60055     -4.1037039      0              60.268532      2067.6111    
    986000   294.53583     -2.5716079      0              59.066546      2156.0093    
    987000   304.64764     -4.3556471      0              59.398626      2045.3653    
    988000   296.27014     -4.9692708      0              57.031825      2035.3394    
    989000   298.45677     -4.3680662      0              58.090632      2114.4231    
    990000   291.10065     -3.401965       0              57.517302      2087.1652    
    991000   301.3817      -3.9573433      0              59.113461      2110.9287    
    992000   298.31121     -5.1509675      0              57.277269      1983.4735    
    993000   293.77456     -4.0805805      0              57.398261      2134.0142    
    994000   304.96839     -7.0295999      0              56.791798      1903.9844    
    995000   300.51685     -4.5307279      0              58.359086      2071.191     
    996000   309.52391     -4.3870066      0              60.387734      2114.7882    
    997000   298.84884     -5.4123509      0              57.128396      2110.2919    
    998000   291.96638     -6.8980637      0              54.202375      2019.8352    
    999000   313.92884     -5.5859838      0              60.110586      2099.1559    
   1000000   291.48855     -5.021173       0              55.979269      2076.3602    
   1001000   296.25774     -3.0482539      0              58.950247      2079.4199    
   1002000   298.04571     -5.2023111      0              57.170364      2038.5069    
   1003000   289.67365     -5.5412656      0              55.079369      2034.1171    
   1004000   296.71694     -5.3455816      0              56.749018      2101.2549    
   1005000   299.65792     -3.707285       0              59.00278       2076.1498    
   1006000   293.51126     -5.7212518      0              55.702487      2100.9831    
   1007000   309.69392     -3.8192977      0              60.991022      2102.5357    
   1008000   307.59268     -4.7071315      0              59.663458      2071.6763    
   1009000   306.66196     -3.2923346      0              60.88348       2236.2911    
   1010000   300.68357     -4.489343       0              58.435362      2097.549     
   1011000   299.56188     -2.8227786      0              59.867188      2081.7805    
   1012000   295.34151     -5.3444494      0              56.462312      2026.5676    
   1013000   311.09281     -4.6843993      0              60.418669      2175.3123    
   1014000   305.26998     -5.160875       0              58.723637      2135.7206    
   1015000   308.45587     -4.8995281      0              59.651704      2033.6084    
   1016000   294.87933     -3.8814806      0              57.828558      2047.7822    
   1017000   296.93476     -4.4609202      0              57.679262      2166.0522    
   1018000   288.60382     -6.3251827      0              54.071566      2016.9479    
   1019000   289.19553     -5.1907338      0              55.329844      2046.113     
   1020000   293.85757     -5.1731963      0              56.323016      1969.3722    
   1021000   298.4966      -4.8467998      0              57.620234      2069.3859    
   1022000   299.38927     -3.7348919      0              58.918952      2073.7027    
   1023000   294.75963     -3.8982972      0              57.786691      2023.1434    
   1024000   304.68897     -6.5671848      0              57.195739      2002.482     
   1025000   294.43219     -4.0510023      0              57.565462      2134.6069    
   1026000   299.64786     -5.4363653      0              57.271594      2027.7071    
   1027000   301.70738     -4.5967141      0              58.542245      2065.733     
   1028000   310.76309     -2.3099994      0              62.724068      2173.7977    
   1029000   306.16973     -2.9843716      0              61.088433      2187.7183    
   1030000   308.42731     -5.1650273      0              59.380227      2036.7088    
   1031000   293.58572     -3.449431       0              57.989892      2165.8914    
   1032000   300.26207     -4.6009611      0              58.235536      2124.9367    
   1033000   298.42052     -5.4430304      0              57.008081      2161.8101    
   1034000   301.54703     -3.9271827      0              59.17822       2101.1422    
   1035000   300.40115     -5.6621815      0              57.20342       2023.1218    
   1036000   298.90617     -5.1154488      0              57.437296      2019.3829    
   1037000   301.54039     -4.05368        0              59.050334      2099.3955    
   1038000   294.53202     -4.9808365      0              56.656519      2175.7628    
   1039000   305.51537     -3.6837297      0              60.252136      2140.4269    
   1040000   284.73511     -4.7235101      0              54.863625      2021.8992    
   1041000   292.66863     -5.3475056      0              55.899895      2031.3855    
   1042000   297.03752     -4.993105       0              57.168582      1969.4972    
   1043000   291.15972     -4.0995733      0              56.832054      2118.6158    
   1044000   304.0614      -5.5760808      0              58.05551       2010.9255    
   1045000   304.97967     -4.5064325      0              59.317326      2099.4063    
   1046000   289.53932     -6.0563008      0              54.536223      1985.0627    
   1047000   308.54183     -4.6199573      0              59.949262      2115.5704    
   1048000   304.49267     -5.740834       0              57.981008      1988.2385    
   1049000   295.90175     -5.7375216      0              56.18648       2018.3914    
   1050000   293.75209     -3.6297258      0              57.844413      2101.8872    
   1051000   313.67637     -4.725404       0              60.918331      2144.3042    
   1052000   298.73945     -3.3983681      0              59.119486      2148.0961    
   1053000   305.56993     -3.629451       0              60.317833      2074.704     
   1054000   305.14863     -4.1942167      0              59.6649        2057.8598    
   1055000   301.89837     -5.5929874      0              57.585941      1999.8905    
   1056000   296.55417     -3.8040006      0              58.256536      2038.0337    
   1057000   302.8545      -4.5507616      0              58.828257      2179.1057    
   1058000   299.31775     -4.7065873      0              57.93229       1970.2024    
   1059000   296.52641     -3.9119617      0              58.142764      2162.3583    
   1060000   290.9845      -4.5709862      0              56.323973      2132.0901    
   1061000   300.86561     -2.85465        0              60.10815       2199.174     
   1062000   303.34559     -3.4946738      0              59.987117      2105.2332    
   1063000   305.38334     -5.8358371      0              58.072399      2010.2706    
   1064000   285.22174     -3.3052385      0              56.383735      2104.3387    
   1065000   305.11351     -3.748054       0              60.103715      2044.6636    
   1066000   289.01962     -3.2334441      0              57.25032       2073.1956    
   1067000   308.50369     -4.1041314      0              60.457107      2153.1188    
   1068000   290.44449     -4.227965       0              56.553986      2166.9345    
   1069000   306.58344     -5.2598372      0              58.899545      2144.146     
   1070000   292.81558     -3.9522931      0              57.325859      2221.7885    
   1071000   290.02991     -4.4653877      0              56.229801      2073.6512    
   1072000   302.92573     -5.7680185      0              57.625908      2079.5423    
   1073000   298.56312     -4.207755       0              58.273198      2035.7318    
   1074000   301.30699     -4.1494493      0              58.905719      2082.067     
   1075000   306.64124     -4.2581069      0              59.913373      2104.4288    
   1076000   307.10717     -4.9229106      0              59.346075      2064.2285    
   1077000   303.19297     -4.0939248      0              59.355927      2055.8648    
   1078000   302.28277     -4.2350416      0              59.024332      2021.8258    
   1079000   295.3397      -3.9788193      0              57.827563      2154.3695    
   1080000   289.36525     -4.5731633      0              55.982932      2105.8978    
   1081000   291.72974     -4.9434949      0              56.107423      2063.7658    
   1082000   301.15877     -5.243424       0              57.780726      2042.9702    
   1083000   309.12267     -4.1990397      0              60.491735      2129.2572    
   1084000   295.10366     -4.747093       0              57.009893      2152.504     
   1085000   292.18945     -4.5794005      0              56.567721      2156.4171    
   1086000   293.19317     -5.1698767      0              56.187295      2038.7593    
   1087000   305.01159     -4.5405303      0              59.289908      2080.9448    
   1088000   300.75933     -4.6980756      0              58.242484      2081.9342    
   1089000   297.9468      -5.624207       0              56.727768      2045.949     
   1090000   293.32208     -2.6432696      0              58.74088       2201.4279    
   1091000   294.17114     -4.8501288      0              56.711706      2134.8252    
   1092000   297.26708     -4.9647101      0              57.245019      2016.4397    
   1093000   298.55468     -4.0365866      0              58.442601      2160.3066    
   1094000   287.36698     -4.873436       0              55.264477      2094.8929    
   1095000   305.34748     -3.3211958      0              60.579534      2067.8852    
   1096000   299.54228     -4.7878658      0              57.897999      2084.3718    
   1097000   295.17358     -4.5928825      0              57.178734      1918.4453    
   1098000   295.28839     -3.6008806      0              58.194763      2069.3128    
   1099000   293.61204     -4.6016841      0              56.843147      2067.2218    
   1100000   307.56535     -3.3260754      0              61.038794      2248.6859    
   1101000   302.99986     -3.3772778      0              60.032163      2137.6244    
   1102000   314.27839     -4.1986699      0              61.571053      2100.219     
   1103000   298.07548     -3.0853849      0              59.293519      2130.4805    
   1104000   291.99893     -6.0575188      0              55.049732      2118.2016    
   1105000   304.74812     -6.4235882      0              57.351714      2111.8698    
   1106000   291.70793     -3.139054       0              57.907298      2136.3917    
   1107000   308.2305      -3.4776867      0              61.026381      2154.933     
   1108000   303.8004      -4.438397       0              59.138574      1991.1866    
   1109000   292.66296     -5.7561385      0              55.490076      1983.681     
   1110000   286.97101     -4.91252        0              55.142528      2046.0231    
   1111000   299.72118     -2.7015944      0              60.021709      2302.7739    
   1112000   303.57768     -5.4361129      0              58.094249      2103.1767    
   1113000   301.76672     -5.8671638      0              57.284214      2043.8676    
   1114000   303.08709     -4.4319433      0              58.995751      2116.4739    
   1115000   297.99223     -4.3140714      0              58.047411      2126.9523    
   1116000   307.30773     -5.8237397      0              58.487218      1990.0477    
   1117000   297.51052     -6.647565       0              55.613109      1948.6778    
   1118000   306.24619     -4.9679484      0              59.120859      2016.8589    
   1119000   297.5598      -5.1663914      0              57.104596      2056.8312    
   1120000   308.30857     -4.675064       0              59.845341      2000.8863    
   1121000   294.88032     -6.3495312      0              55.360714      2053.3271    
   1122000   303.36329     -5.1421177      0              58.343378      2147.1732    
   1123000   302.5033      -3.0842809      0              60.221242      2146.0382    
   1124000   303.99757     -4.6066679      0              59.011565      2101.8423    
   1125000   300.98489     -4.2341337      0              58.753629      2139.1489    
   1126000   307.33273     -4.282006       0              60.034183      2165.8614    
   1127000   307.51104     -5.4409282      0              58.912576      1914.2325    
   1128000   301.43584     -5.223244       0              57.858891      2047.4158    
   1129000   298.07746     -4.152516       0              58.226803      2044.3942    
   1130000   294.09838     -4.9632219      0              56.583386      1980.816     
   1131000   297.65396     -4.595995       0              57.694696      1988.1472    
   1132000   291.51555     -4.7096543      0              56.296439      2049.3061    
   1133000   289.75274     -5.0675187      0              55.569668      2050.4823    
   1134000   306.74772     -4.2141678      0              59.979594      2130.3132    
   1135000   299.98388     -4.358631       0              58.419647      2080.9182    
   1136000   312.8091      -6.1914591      0              59.270781      2089.0716    
   1137000   301.65648     -5.2083696      0              57.919937      1973.3163    
   1138000   295.1141      -3.7317179      0              58.027451      2132.1081    
   1139000   303.63249     -2.485805       0              61.056026      2170.2973    
   1140000   303.48771     -3.4213797      0              60.090153      2227.0177    
   1141000   304.3095      -5.7953582      0              57.888152      2015.4108    
   1142000   302.81971     -4.5599147      0              58.811824      2138.1378    
   1143000   297.47242     -3.9054704      0              58.34723       2085.8663    
   1144000   308.11164     -3.2122151      0              61.266978      2210.4917    
   1145000   292.62256     -3.639589       0              57.59817       2007.9739    
   1146000   304.32153     -4.8346933      0              58.851335      2055.8856    
   1147000   293.85782     -5.7686146      0              55.727651      1963.9824    
   1148000   301.89648     -6.461012       0              56.71752       2043.7786    
   1149000   290.93932     -4.4426122      0              56.442893      2145.0791    
   1150000   296.49111     -5.3708536      0              56.676486      2079.2257    
   1151000   302.52588     -4.0695132      0              59.240736      2094.5779    
   1152000   298.81573     -5.8726602      0              56.661157      1966.9967    
   1153000   304.31403     -6.2760123      0              57.408447      1991.2969    
   1154000   306.88129     -4.5683267      0              59.653388      2090.6404    
   1155000   291.11977     -4.2785026      0              56.644765      2018.2306    
   1156000   306.98736     -5.6034009      0              58.640512      2029.0639    
   1157000   294.48955     -3.4873042      0              58.141164      2081.2615    
   1158000   309.98946     -4.6596846      0              60.212484      2118.7032    
   1159000   313.82974     -4.7408248      0              60.935007      2107.1305    
   1160000   295.14284     -5.2890473      0              56.476137      1972.1517    
   1161000   298.88289     -3.9406214      0              58.607251      2017.1936    
   1162000   301.43818     -4.7735008      0              58.309123      2193.6097    
   1163000   294.40761     -6.312365       0              55.298955      2098.2253    
   1164000   305.22134     -4.6280985      0              59.246235      2108.1487    
   1165000   295.43744     -3.5966933      0              58.230143      2132.9288    
   1166000   302.13062     -6.2058948      0              57.021638      2000.4605    
   1167000   310.42974     -3.7096457      0              61.254661      2123.2668    
   1168000   292.28487     -6.972437       0              54.194654      2049.4885    
   1169000   315.93971     -4.5102746      0              61.607116      2024.1517    
   1170000   304.75384     -3.0519281      0              60.724571      2109.4957    
   1171000   307.53234     -3.5395329      0              60.818428      2029.8526    
   1172000   285.86579     -3.6159123      0              56.207843      2116.4252    
   1173000   299.87189     -3.510254       0              59.244588      2145.4636    
   1174000   303.55594     -4.5813555      0              58.944456      2133.576     
   1175000   298.0913      -4.1979934      0              58.184221      2129.1747    
   1176000   305.06971     -5.2212373      0              58.621365      2163.6289    
   1177000   297.99995     -5.139181       0              57.223916      2033.4818    
   1178000   297.11521     -3.0771173      0              59.100828      2201.0546    
   1179000   302.16389     -5.9213537      0              57.313141      2047.247     
   1180000   305.9666      -4.6262659      0              59.40403       2292.012     
   1181000   312.91081     -3.02023        0              62.463295      2068.8835    
   1182000   303.3544      -3.9634812      0              59.520154      2017.4713    
   1183000   293.83125     -3.3891052      0              58.1016        1994.5165    
   1184000   292.92117     -4.1951172      0              57.105133      2069.4821    
   1185000   299.14404     -3.8371325      0              58.765392      2063.065     
   1186000   288.7472      -4.8989459      0              55.527808      2024.9119    
   1187000   294.31908     -4.8895731      0              56.703221      2028.1327    
   1188000   309.50795     -4.8501515      0              59.921249      2052.4147    
   1189000   301.13512     -3.5969948      0              59.422207      2157.3207    
   1190000   297.74917     -5.5808178      0              56.729798      2041.4625    
   1191000   310.33019     -4.7670664      0              60.176408      2102.326     
   1192000   306.87417     -3.6852002      0              60.535025      2059.6069    
   1193000   307.19414     -3.1285855      0              61.1586        2248.2796    
   1194000   289.55649     -4.0418018      0              56.554314      2115.7179    
   1195000   305.46525     -4.7018731      0              59.223504      2170.9521    
   1196000   297.70427     -5.2886822      0              57.012538      2004.5586    
   1197000   303.28711     -5.4664883      0              58.003064      1999.7409    
   1198000   297.86307     -3.6599043      0              58.674548      2072.9545    
   1199000   303.84459     -4.6712973      0              58.91492       2117.1127    
   1200000   297.75689     -6.1500676      0              56.162164      1945.801     
   1201000   293.09907     -5.2539816      0              56.083499      2021.8737    
   1202000   303.03485     -5.0766203      0              58.340141      2136.5613    
   1203000   297.85582     -4.6545667      0              57.678368      2002.5087    
   1204000   303.30052     -5.4912574      0              57.981102      2028.6676    
   1205000   303.91244     -3.9141909      0              59.686227      2050.1306    
   1206000   291.25693     -4.3430683      0              56.608902      2091.9019    
   1207000   294.35404     -4.9631182      0              56.636992      2101.7163    
   1208000   307.17697     -4.3182936      0              59.965298      2174.0573    
   1209000   295.60883     -4.859765       0              57.002938      2101.641     
   1210000   301.60285     -5.5313556      0              57.585729      2111.215     
   1211000   302.86264     -3.1648515      0              60.215872      2127.483     
   1212000   288.14388     -5.6223363      0              54.67816       2139.8924    
   1213000   295.65192     -4.3567112      0              57.515009      2091.5818    
   1214000   298.88988     -5.4302808      0              57.119054      2114.5121    
   1215000   305.5976      -6.0378164      0              57.915258      2024.4404    
   1216000   297.25251     -2.5454847      0              59.661194      2193.8997    
   1217000   300.34532     -4.7443634      0              58.109555      2063.0437    
   1218000   299.39503     -4.6385909      0              58.016457      2159.4187    
   1219000   309.74244     -4.6179488      0              60.202526      2102.0649    
   1220000   288.13361     -3.9041985      0              56.394149      2089.2413    
   1221000   297.88227     -6.1012231      0              56.237248      2033.2759    
   1222000   302.0788      -4.3615189      0              58.855169      2198.6033    
   1223000   307.8445      -4.2920966      0              60.131192      2091.9641    
   1224000   293.18164     -5.8218169      0              55.532942      2004.2264    
   1225000   302.64484     -4.5661714      0              58.768973      2133.8901    
   1226000   299.65654     -4.8425609      0              57.867216      2102.2608    
   1227000   295.47323     -4.2220212      0              57.612304      2184.7803    
   1228000   306.78546     -5.464756       0              58.736904      2050.4649    
   1229000   298.58376     -5.5313845      0              56.953888      2069.4398    
   1230000   301.8595      -4.3769103      0              58.793884      2122.1555    
   1231000   297.78699     -4.6484507      0              57.67008       2051.9649    
   1232000   298.06182     -4.9821759      0              57.393869      2084.0504    
   1233000   308.84596     -4.0825382      0              60.550327      2067.4219    
   1234000   297.31976     -5.5932856      0              56.627467      2040.1063    
   1235000   298.47832     -4.3573927      0              58.105815      2105.8248    
   1236000   314.29603     -4.1327111      0              61.640703      2153.717     
   1237000   291.95528     -5.1389614      0              55.959156      2061.7288    
   1238000   300.80515     -5.059298       0              57.890849      2079.4809    
   1239000   286.2667      -2.3484161      0              57.559238      2145.9951    
   1240000   306.6716      -5.2265729      0              58.951261      2188.6162    
   1241000   294.70017     -5.4664048      0              56.206141      2107.1143    
   1242000   296.39205     -5.2097099      0              56.8169        2032.7559    
   1243000   312.47526     -4.8978222      0              60.494554      2183.7213    
   1244000   295.84109     -5.5034733      0              56.407834      2109.2925    
   1245000   294.59955     -2.8883183      0              58.763169      2167.5343    
   1246000   295.81546     -6.3457771      0              55.560167      1993.4794    
   1247000   313.64046     -4.4459783      0              61.190243      2093.1665    
   1248000   299.96812     -4.6959601      0              58.079021      1944.1076    
   1249000   299.26499     -4.8848141      0              57.743022      2097.9193    
   1250000   297.17188     -3.3479313      0              58.841875      2167.798     
   1251000   296.75119     -4.583425       0              57.518343      2094.4218    
   1252000   306.73131     -4.0186476      0              60.171681      2178.5995    
   1253000   303.22248     -4.9026666      0              58.553361      2052.8727    
   1254000   302.95946     -4.9564063      0              58.444579      2118.1025    
   1255000   296.15123     -2.3791167      0              59.597095      2130.3638    
   1256000   293.42617     -5.8898744      0              55.516058      2036.6878    
   1257000   300.78471     -5.7765797      0              57.169291      1949.5438    
   1258000   301.05824     -5.0894814      0              57.913631      2065.8461    
   1259000   288.68215     -2.8605937      0              57.552547      2193.9932    
   1260000   295.2479      -2.3764015      0              59.410769      2257.7857    
   1261000   301.30664     -4.8403516      0              58.214743      2062.9211    
   1262000   302.39738     -4.2600152      0              59.023341      2105.9266    
   1263000   311.20874     -5.386029       0              59.741302      2063.0576    
   1264000   297.24323     -4.3135808      0              57.891156      2121.3988    
   1265000   299.34187     -4.1153224      0              58.528602      2054.3276    
   1266000   306.96635     -2.394842       0              61.844674      2202.9401    
   1267000   299.08889     -3.8648374      0              58.726145      2042.4881    
   1268000   307.20998     -1.7756186      0              62.514882      2117.0205    
   1269000   298.45899     -4.8359138      0              57.623248      2059.3939    
   1270000   296.88244     -3.5073938      0              58.62184       2126.4746    
   1271000   305.03013     -5.093041       0              58.741278      2074.5482    
   1272000   309.12092     -4.6986321      0              59.991776      2190.4352    
   1273000   289.95891     -4.4087785      0              56.271554      2034.3445    
   1274000   299.94735     -3.9972349      0              58.773399      2024.6739    
   1275000   303.79928     -4.9770934      0              58.599642      2148.3059    
   1276000   301.07255     -5.3556525      0              57.650456      2041.5944    
   1277000   300.61119     -4.8900353      0              58.019523      2099.653     
   1278000   305.38948     -3.729918       0              60.179604      2186.0001    
   1279000   293.05802     -3.8370017      0              57.491888      2007.3012    
   1280000   299.66003     -3.2140177      0              59.496489      2141.4248    
   1281000   302.15543     -3.8109589      0              59.421764      2061.6337    
   1282000   306.98725     -4.2565176      0              59.987371      2104.7314    
   1283000   308.86029     -4.611433       0              60.024432      2052.9596    
   1284000   297.1977      -3.5190097      0              58.6762        2094.0326    
   1285000   305.08394     -5.0898364      0              58.755742      2146.8558    
   1286000   311.32262     -3.9362305      0              61.214932      2063.8873    
   1287000   301.14405     -4.0013494      0              59.019721      2141.0448    
   1288000   297.15306     -4.6817168      0              57.504151      2111.9599    
   1289000   298.6418      -3.6807564      0              58.816664      2077.5149    
   1290000   308.06129     -5.8699808      0              58.598676      2071.7226    
   1291000   306.0166      -3.6450884      0              60.395671      2069.6212    
   1292000   289.25741     -5.9003902      0              54.633136      2109.6962    
   1293000   305.19693     -4.1491098      0              59.720115      2150.3483    
   1294000   296.87064     -4.5707988      0              57.555966      2147.9621    
   1295000   302.57885     -3.9397564      0              59.381578      2058.1313    
   1296000   311.07977     -2.6428156      0              62.457524      2156.203     
   1297000   302.96195     -5.7145967      0              57.68691       2075.6738    
   1298000   302.73895     -4.5454825      0              58.809356      2111.7277    
   1299000   295.57194     -4.5718074      0              57.283176      2052.2889    
   1300000   301.8765      -4.7439336      0              58.430418      2044.4315    
   1301000   303.38742     -4.3418368      0              59.148708      2160.3573    
   1302000   302.20617     -5.3406641      0              57.902678      2053.6003    
   1303000   300.94699     -4.4056752      0              58.574156      2019.5057    
   1304000   304.84464     -6.2610989      0              57.534401      1968.7228    
   1305000   307.18222     -4.9002861      0              59.384405      2120.9189    
   1306000   291.80623     -4.9526035      0              56.114322      2001.2992    
   1307000   291.0669      -3.4053598      0              57.506843      2072.0528    
   1308000   299.20589     -4.0186453      0              58.596822      2212.2818    
   1309000   288.82921     -4.8768607      0              55.567057      2087.8279    
   1310000   294.23468     -4.9307964      0              56.644335      2090.1023    
   1311000   303.08782     -2.9326691      0              60.495179      2102.1115    
   1312000   296.03598     -6.4527306      0              55.499363      1962.572     
   1313000   295.30092     -4.3077921      0              57.490474      2010.4771    
   1314000   303.92397     -5.616361       0              57.986468      2121.331     
   1315000   303.75636     -4.2366437      0              59.331111      2100.8128    
   1316000   304.24647     -4.9828253      0              58.687496      2132.7527    
   1317000   300.92192     -4.7140856      0              58.2605        2081.573     
   1318000   295.84694     -5.5731705      0              56.339361      2061.7203    
   1319000   300.9236      -7.1441865      0              55.83075       2089.6656    
   1320000   301.28557     -3.8329174      0              59.217768      2110.549     
   1321000   311.81275     -3.7794367      0              61.474296      2070.9063    
   1322000   307.71122     -5.0311379      0              59.364258      2049.5103    
   1323000   284.30124     -4.605649       0              54.89069       2189.6179    
   1324000   304.93663     -3.087303       0              60.727448      2231.2445    
   1325000   292.35316     -4.4912424      0              56.690138      2069.0727    
   1326000   285.94775     -5.136134       0              54.704774      2106.5949    
   1327000   306.35067     -6.4106585      0              57.700014      1994.3156    
   1328000   288.3351      -3.6726227      0              56.667891      2117.3947    
   1329000   311.00412     -4.5098396      0              60.574668      2200.9685    
   1330000   306.66481     -4.8372688      0              59.339143      2105.6729    
   1331000   291.66723     -5.7691107      0              55.268725      2112.0868    
   1332000   300.53384     -4.6613772      0              58.231993      2234.1777    
   1333000   303.97241     -6.7086167      0              56.904351      2085.604     
   1334000   303.28092     -3.7531941      0              59.715065      2144.3792    
   1335000   311.58654     -5.6283699      0              59.578022      2106.4536    
   1336000   294.94551     -4.6314843      0              57.092405      2075.6021    
   1337000   305.71715     -5.1198508      0              58.858242      2065.9539    
   1338000   295.23162     -5.3414351      0              56.442328      2091.4794    
   1339000   296.10904     -3.8317849      0              58.135598      2047.6157    
   1340000   300.86058     -5.3800841      0              57.581664      2020.6239    
   1341000   293.02564     -4.6704321      0              56.651682      2066.901     
   1342000   297.69374     -5.8110844      0              56.487932      1935.0857    
   1343000   296.04733     -4.4220933      0              57.532375      2131.4325    
   1344000   308.79526     -5.4989352      0              59.12332       2140.4448    
   1345000   303.44237     -5.8540535      0              57.647991      2151.1816    
   1346000   299.63864     -4.4953083      0              58.210722      2175.6391    
   1347000   304.06618     -4.5758882      0              59.056703      2123.9744    
   1348000   289.00769     -6.1459809      0              54.335287      1997.7408    
   1349000   299.51689     -6.4823636      0              56.198188      1992.9305    
   1350000   299.55929     -4.1400631      0              58.549361      2096.6907    
   1351000   296.46556     -4.0285646      0              58.013427      2087.3241    
   1352000   295.34998     -3.5314908      0              58.277042      2089.7825    
   1353000   305.29647     -4.3639336      0              59.526123      2101.1518    
   1354000   303.91443     -4.6604725      0              58.940361      2096.9318    
   1355000   306.6378      -5.6579093      0              58.512849      1991.2413    
   1356000   303.45918     -5.0140107      0              58.491552      2125.9688    
   1357000   306.3088      -4.0136355      0              60.088273      2103.7619    
   1358000   297.15309     -3.2962388      0              58.889634      2118.2931    
   1359000   305.13822     -3.8197833      0              60.037156      2088.1071    
   1360000   310.15793     -6.3242835      0              58.583141      2034.5934    
   1361000   298.85028     -3.5160224      0              59.025026      2153.312     
   1362000   304.8051      -4.1736792      0              59.613547      2038.4119    
   1363000   282.68154     -3.6334811      0              55.5239        2040.8008    
   1364000   307.31891     -4.2947552      0              60.018542      2035.0094    
   1365000   300.10291     -4.3767313      0              58.426458      2186.428     
   1366000   295.83694     -4.8428813      0              57.067558      2045.1388    
   1367000   295.34267     -4.3668682      0              57.440134      2075.8556    
   1368000   298.30936     -5.9374041      0              56.490444      2056.2043    
   1369000   306.42357     -4.7240834      0              59.401844      2129.1436    
   1370000   293.95311     -3.6979277      0              57.818278      2077.3331    
   1371000   292.54729     -5.0121644      0              56.209844      2130.2402    
   1372000   306.00787     -4.1105434      0              59.928389      2065.2337    
   1373000   306.51545     -3.6134999      0              60.531655      2191.3978    
   1374000   305.92389     -4.9735153      0              59.047843      2189.8665    
   1375000   292.38811     -5.033373       0              56.155322      2018.0274    
   1376000   312.59799     -4.7112733      0              60.706788      2169.9805    
   1377000   293.66259     -3.9350087      0              57.5204        2093.7055    
   1378000   300.18092     -3.0501276      0              59.769387      2080.6867    
   1379000   308.61658     -3.4397159      0              61.145146      2139.1289    
   1380000   294.81222     -5.0970667      0              56.598929      1971.4228    
   1381000   308.3987      -5.8751008      0              58.664166      2012.0067    
   1382000   295.98757     -4.9694184      0              56.972545      2065.0932    
   1383000   296.2345      -5.4036017      0              56.590036      2004.8042    
   1384000   306.4585      -5.7720473      0              58.361188      2014.2399    
   1385000   299.89819     -3.860961       0              58.899384      2207.8042    
   1386000   302.76513     -4.242026       0              59.118291      2002.5579    
   1387000   307.87401     -4.074269       0              60.355195      2098.3774    
   1388000   296.79034     -4.8321975      0              57.277763      2039.7177    
   1389000   306.59855     -5.0328932      0              59.129653      2077.8957    
   1390000   301.57426     -4.2427925      0              58.868309      2131.3402    
   1391000   313.01533     -4.080606       0              61.424794      2151.0194    
   1392000   303.0758      -4.9421171      0              58.483214      2071.5737    
   1393000   298.62537     -6.0110709      0              56.482911      2014.7266    
   1394000   296.72652     -4.0242523      0              58.072352      2113.1053    
   1395000   303.71754     -5.6572662      0              57.902365      2113.7248    
   1396000   298.02251     -6.3223714      0              56.045447      1966.2935    
   1397000   301.49369     -3.3799966      0              59.714243      2152.4443    
   1398000   307.89546     -4.1003834      0              60.333568      2154.7673    
   1399000   305.27721     -2.906712       0              60.979313      2244.464     
   1400000   299.39934     -3.6586471      0              58.997305      2119.2993    
   1401000   296.50748     -4.1587461      0              57.892019      2158.1704    
   1402000   300.76101     -5.3382787      0              57.602633      2075.0437    
   1403000   283.73757     -4.0812368      0              55.297141      2041.8558    
   1404000   296.29593     -4.1271812      0              57.879312      2048.4016    
   1405000   307.3952      -4.9813365      0              59.347925      2134.5409    
   1406000   292.59914     -4.7273959      0              56.505463      2095.769     
   1407000   297.30222     -5.0007156      0              57.216366      1977.7925    
   1408000   301.8903      -5.1040039      0              58.073235      2061.4812    
   1409000   287.34204     -3.9512158      0              56.181477      2065.2224    
   1410000   289.1011      -4.2410202      0              56.259796      2134.7286    
   1411000   304.26363     -5.093273       0              58.580639      2125.2334    
   1412000   300.89542     -4.4898691      0              58.47917       2169.2359    
   1413000   289.94614     -5.9583089      0              54.719351      2024.0471    
   1414000   299.69641     -5.1046922      0              57.613428      2146.9089    
   1415000   309.60218     -5.9270482      0              58.864074      2104.9199    
   1416000   303.04681     -5.5542596      0              57.865006      2004.9214    
   1417000   294.994       -4.8566749      0              56.877362      2180.8989    
   1418000   297.97798     -3.3708966      0              58.987603      2165.2161    
   1419000   293.85617     -5.8880211      0              55.607899      2092.9467    
   1420000   291.93326     -3.6716865      0              57.421821      2134.1568    
   1421000   299.27733     -6.8690442      0              55.761374      2030.0096    
   1422000   306.04404     -4.2542472      0              59.792254      2087.2121    
   1423000   292.1365      -3.6172993      0              57.518742      2089.3958    
   1424000   305.78835     -4.5563879      0              59.436605      2083.4221    
   1425000   307.37211     -4.4669859      0              59.857444      2074.3848    
   1426000   295.55289     -5.421117       0              56.42988       2111.8597    
   1427000   304.86956     -3.8380746      0              59.96264       2154.6972    
   1428000   296.37667     -4.1817512      0              57.841638      2162.3217    
   1429000   309.82646     -4.2217837      0              60.616273      2069.1294    
   1430000   309.50779     -4.2949699      0              60.476399      1991.5995    
   1431000   308.15814     -5.1901319      0              59.298792      2143.3463    
   1432000   299.86655     -4.4381841      0              58.315541      2136.6825    
   1433000   304.40265     -3.4793413      0              60.223663      2109.2041    
   1434000   292.96824     -2.8965256      0              58.413576      2048.2215    
   1435000   308.19155     -4.068551       0              60.427365      2102.545     
   1436000   308.85079     -5.1037135      0              59.530162      2093.4288    
   1437000   301.30845     -5.6721148      0              57.383361      2028.3778    
   1438000   296.50923     -4.4600758      0              57.591056      2177.605     
   1439000   287.79733     -3.0515095      0              57.176463      1998.1533    
   1440000   311.77792     -4.0791871      0              61.167256      2136.7396    
   1441000   295.25633     -3.2503602      0              58.538574      2107.2478    
   1442000   299.82921     -3.2145571      0              59.531354      2282.978     
   1443000   292.0183      -4.9908968      0              56.120409      1994.5832    
   1444000   299.04413     -4.4284086      0              58.153207      2117.5495    
   1445000   307.97131     -5.9104658      0              58.53936       2053.4821    
   1446000   297.08677     -3.4226507      0              58.749344      2160.1327    
   1447000   298.88095     -5.274293       0              57.273174      2045.6993    
   1448000   298.02814     -4.8612132      0              57.507784      2095.1948    
   1449000   296.19533     -3.328188       0              58.657254      2143.6463    
   1450000   308.71152     -4.0930584      0              60.511672      2055.9902    
   1451000   297.86074     -4.0668674      0              58.267098      2129.4895    
   1452000   297.68989     -4.1290997      0              58.169111      2170.948     
   1453000   309.21949     -5.8320794      0              58.878956      1982.9734    
   1454000   292.7305      -5.5538598      0              55.706488      2043.5097    
   1455000   303.44984     -6.7028763      0              56.800731      2004.3397    
   1456000   298.39821     -4.581082       0              57.86536       2110.0433    
   1457000   304.56914     -4.3732364      0              59.364609      2092.796     
   1458000   302.34804     -4.118627       0              59.154406      2080.1145    
   1459000   297.02571     -5.3236674      0              56.835549      2072.8262    
   1460000   297.61649     -4.2739784      0              58.008871      2067.8119    
   1461000   296.03952     -3.9056247      0              58.04721       2071.1826    
   1462000   306.68363     -6.2629866      0              57.917364      1990.6901    
   1463000   298.11547     -4.9795815      0              57.407692      2078.9077    
   1464000   305.87887     -4.3766609      0              59.635275      2135.3633    
   1465000   306.3879      -5.5450438      0              58.573418      2047.039     
   1466000   295.40243     -5.1400808      0              56.679428      2032.9991    
   1467000   289.67358     -4.4537069      0              56.166912      2065.8594    
   1468000   311.01373     -4.7314357      0              60.355084      2165.2605    
   1469000   298.52497     -4.7838035      0              57.689167      1994.4589    
   1470000   304.02454     -3.5031593      0              60.120716      2266.4999    
   1471000   306.16804     -4.7785069      0              59.293945      2106.6498    
   1472000   289.66301     -5.5887414      0              55.029667      1962.7386    
   1473000   295.57706     -3.3457071      0              58.510346      2139.5555    
   1474000   306.7347      -3.0906883      0              61.10035       2259.7572    
   1475000   296.74189     -3.3130341      0              58.786787      2071.5388    
   1476000   307.50542     -6.4820377      0              57.870291      2078.5936    
   1477000   300.91735     -2.8672106      0              60.106418      2174.0894    
   1478000   303.61095     -5.2723302      0              58.264994      2112.099     
   1479000   303.73973     -4.8771429      0              58.687131      2146.9363    
   1480000   298.73395     -6.1820786      0              56.334624      2035.8631    
   1481000   293.96186     -2.9812485      0              58.536789      2222.3222    
   1482000   305.54848     -4.7598544      0              59.182941      2090.367     
   1483000   290.44851     -4.1070347      0              56.675757      2212.1982    
   1484000   308.43378     -4.5478283      0              59.99878       2173.4755    
   1485000   301.36021     -5.2906858      0              57.77562       1951.1557    
   1486000   295.9425      -3.5870792      0              58.345452      2109.6205    
   1487000   298.38813     -5.535672       0              56.908661      2136.9866    
   1488000   291.59257     -4.6073459      0              56.414865      2075.7578    
   1489000   299.00971     -5.528788       0              57.045625      2121.9943    
   1490000   288.95714     -5.1671027      0              55.303585      1991.2949    
   1491000   292.27283     -4.2887321      0              56.875839      1988.5769    
   1492000   298.45063     -3.8989864      0              58.558426      2121.2186    
   1493000   310.10858     -6.3761311      0              58.520965      2054.0826    
   1494000   298.37719     -5.6524454      0              56.789599      2035.3624    
   1495000   300.10291     -5.5342063      0              57.268983      1973.522     
   1496000   303.12944     -5.6452043      0              57.791352      2043.6876    
   1497000   301.44686     -4.4196915      0              58.664748      2128.2882    
   1498000   301.36552     -5.737178       0              57.330239      2088.464     
   1499000   304.53314     -5.545737       0              58.184574      2053.3562    
   1500000   303.73761     -4.9953708      0              58.56846       2092.5482    
   1501000   310.08963     -3.4433837      0              61.449747      2153.4487    
   1502000   300.45078     -4.5645936      0              58.311394      2070.6421    
   1503000   299.90888     -3.6602559      0              59.102328      2019.6228    
   1504000   302.73929     -4.2475607      0              59.10735       2183.8891    
   1505000   294.02555     -5.7886616      0              55.742705      2086.3626    
   1506000   302.39232     -4.4859988      0              58.796299      2099.0091    
   1507000   295.22539     -3.8180442      0              57.964415      2113.1297    
   1508000   313.29715     -3.4625656      0              62.101811      2050.9817    
   1509000   299.54894     -3.1735575      0              59.5137        2102.8067    
   1510000   298.57038     -4.610804       0              57.871669      2090.6918    
   1511000   308.69707     -4.9164359      0              59.685272      2125.1198    
   1512000   283.79372     -4.0817767      0              55.308352      2074.3284    
   1513000   301.62011     -3.085973       0              60.034724      2214.0651    
   1514000   299.02418     -3.4670145      0              59.110427      2080.291     
   1515000   304.31953     -3.2276913      0              60.457919      2174.9059    
   1516000   288.07867     -4.4471774      0              55.839673      2097.8325    
   1517000   308.25304     -4.1850137      0              60.32377       2078.5783    
   1518000   295.34587     -2.9616289      0              58.846044      2182.4874    
   1519000   312.78661     -4.0558242      0              61.401709      1974.6799    
   1520000   315.82508     -4.3872954      0              61.706105      2190.9843    
   1521000   299.84805     -4.722033       0              58.027821      2084.1204    
   1522000   288.62911     -4.5181472      0              55.883895      2069.7762    
   1523000   305.52796     -4.5538058      0              59.384694      2098.9954    
   1524000   307.37826     -4.2406429      0              60.085074      2147.106     
   1525000   302.30131     -5.167295       0              58.095958      2167.569     
   1526000   301.3568      -5.4267619      0              57.638831      2001.1116    
   1527000   289.16488     -3.7373457      0              56.776818      2091.5826    
   1528000   304.66757     -4.335349       0              59.423097      2044.3463    
   1529000   305.75963     -4.0146011      0              59.972382      2163.0139    
   1530000   302.35303     -4.2946692      0              58.979408      2125.7981    
   1531000   305.80588     -5.2170534      0              58.779608      2048.0549    
   1532000   313.27631     -4.3426549      0              61.217359      2151.4663    
   1533000   303.9817      -4.0632695      0              59.551642      2011.4868    
   1534000   290.77286     -2.6752813      0              58.175388      2132.2072    
   1535000   291.57141     -3.5252298      0              57.492554      2051.8888    
   1536000   292.40147     -4.9017133      0              56.289779      2088.1852    
   1537000   311.97348     -3.7727672      0              61.514601      2168.7832    
   1538000   303.32497     -3.7500205      0              59.727455      2073.4294    
   1539000   298.69531     -4.1918097      0              58.316808      2045.6827    
   1540000   294.73904     -3.6371796      0              58.043501      2132.2088    
   1541000   302.99599     -4.2725813      0              59.136048      2026.4943    
   1542000   296.5341      -4.5203875      0              57.535949      2064.4455    
   1543000   317.36011     -5.7951466      0              60.619494      2136.8117    
   1544000   307.09435     -3.924511       0              60.341791      2147.2319    
   1545000   300.69459     -4.6607458      0              58.266264      2146.5237    
   1546000   290.31867     -5.5990848      0              55.156534      2160.5767    
   1547000   298.0545      -4.9416525      0              57.432861      2021.6164    
   1548000   304.40221     -5.2782216      0              58.424692      2074.6183    
   1549000   295.56531     -5.2419199      0              56.611675      2126.8305    
   1550000   308.9506      -3.7835805      0              60.871183      2181.8215    
   1551000   294.74699     -4.9918668      0              56.690477      2022.6734    
   1552000   306.76154     -4.8049946      0              59.39166       2106.5053    
   1553000   303.36396     -4.5452016      0              58.940433      2220.9077    
   1554000   300.36656     -6.8346536      0              56.02371       1965.7163    
   1555000   292.0744      -4.9118127      0              56.211233      2117.3871    
   1556000   290.72873     -4.2399437      0              56.601491      2072.5306    
   1557000   298.48454     -5.649433       0              56.815075      2118.9346    
   1558000   297.56588     -4.8560292      0              57.416229      1909.0317    
   1559000   304.93309     -3.0648884      0              60.749122      2147.4917    
   1560000   299.55559     -4.1694566      0              58.519193      2176.849     
   1561000   289.2612      -5.4210511      0              55.11327       2043.0601    
   1562000   312.95927     -4.770221       0              60.723445      2188.3422    
   1563000   303.0676      -6.0411874      0              57.382427      2165.4769    
   1564000   302.73881     -4.1580926      0              59.196717      2036.0612    
   1565000   300.90466     -4.1467942      0              58.824178      2030.1644    
   1566000   300.77536     -4.336095       0              58.607819      2072.473     
   1567000   292.63346     -5.6536049      0              55.586436      1989.6383    
   1568000   296.24007     -4.4657844      0              57.529018      2023.5963    
   1569000   299.72267     -2.868222       0              59.855393      2233.5805    
   1570000   297.86491     -5.6385887      0              56.696248      2172.5852    
   1571000   298.23147     -6.394743       0              56.016805      1971.8164    
   1572000   298.56651     -4.5291212      0              57.952541      2042.9027    
   1573000   299.39862     -3.4326788      0              59.223122      2187.3795    
   1574000   295.81769     -3.811132       0              58.095279      2244.5512    
   1575000   310.70508     -4.3722505      0              60.649678      2105.4067    
   1576000   299.22656     -6.6233255      0              55.996468      1994.1468    
   1577000   292.152       -5.714155       0              55.42513       2052.6506    
   1578000   306.69414     -5.0392413      0              59.143307      2015.5256    
   1579000   303.20191     -5.1868668      0              58.264857      2060.605     
   1580000   298.82713     -3.067053       0              59.46915       2078.4712    
   1581000   306.04803     -3.9502309      0              60.097106      2091.3378    
   1582000   296.60781     -5.0972453      0              56.974516      2036.8492    
   1583000   298.81744     -5.1672852      0              57.36689       2071.5763    
   1584000   295.4768      -5.2242783      0              56.610794      2062.4867    
   1585000   294.38826     -4.8612266      0              56.746045      2063.334     
   1586000   295.05194     -5.6242162      0              56.121945      2010.5114    
   1587000   297.50018     -4.0965514      0              58.161957      2014.464     
   1588000   292.78395     -4.7440014      0              56.527532      2135.4001    
   1589000   288.68934     -3.7988569      0              56.615788      2128.1668    
   1590000   292.99491     -5.2938643      0              56.021817      2068.7996    
   1591000   298.71343     -3.3505199      0              59.161889      2143.5859    
   1592000   307.68771     -5.8149952      0              58.57548       2073.8512    
   1593000   301.41387     -4.3189578      0              58.758578      2159.0471    
   1594000   301.37819     -4.4633863      0              58.606682      2047.4925    
   1595000   306.71886     -5.0317993      0              59.155923      2103.1279    
   1596000   301.88671     -5.5145016      0              57.661987      2052.07      
   1597000   301.34531     -4.6474109      0              58.415777      2076.0554    
   1598000   285.3638      -3.4823441      0              56.236358      1995.2319    
   1599000   291.02421     -3.0462935      0              57.856976      2180.5063    
   1600000   308.65957     -4.7591166      0              59.834742      2056.7505    
   1601000   291.2668      -4.5519712      0              56.402066      2192.3481    
   1602000   300.45605     -4.0090199      0              58.868071      2079.8386    
   1603000   309.67772     -5.6662962      0              59.140634      2115.8071    
   1604000   299.86874     -4.183951       0              58.570232      2029.3215    
   1605000   302.38997     -5.3662848      0              57.915521      2136.9946    
   1606000   301.64208     -5.5217791      0              57.603514      2022.0223    
   1607000   304.47276     -6.3349347      0              57.382741      1927.4645    
   1608000   297.2609      -6.1057764      0              56.102659      1977.8813    
   1609000   289.4819      -3.467187       0              57.113319      2176.5894    
   1610000   291.46853     -5.5496291      0              55.446625      2031.185     
   1611000   292.90635     -5.2524351      0              56.044714      2081.992     
   1612000   298.39668     -3.3557058      0              59.090416      2145.2943    
   1613000   294.09957     -3.6078915      0              57.938965      2143.2604    
   1614000   305.99966     -3.6083932      0              60.428822      2212.7325    
   1615000   304.54977     -5.9369262      0              57.796867      1971.6626    
   1616000   298.79752     -5.9568971      0              56.57311       2102.8249    
   1617000   307.26917     -5.6039201      0              58.698966      2077.4866    
   1618000   303.41022     -5.2151509      0              58.280166      2117.7962    
   1619000   317.20469     -5.0706172      0              61.311499      2096.2691    
   1620000   293.99992     -4.1863751      0              57.339628      2171.5452    
   1621000   306.42849     -3.8645542      0              60.262402      2109.4104    
   1622000   304.87508     -5.7223216      0              58.07955       2133.763     
   1623000   313.02097     -5.3544704      0              60.152108      2070.4694    
   1624000   298.92858     -4.44814        0              58.109294      2052.8477    
   1625000   293.35243     -7.5443182      0              53.846183      1951.3488    
   1626000   302.68682     -3.4083305      0              59.935598      2097.9649    
   1627000   297.11067     -4.2342305      0              57.942765      2071.5011    
   1628000   301.35955     -4.6903899      0              58.375779      2046.9811    
   1629000   294.25883     -4.5068681      0              57.073317      2133.3797    
   1630000   299.87154     -4.4134404      0              58.34133       2103.0085    
   1631000   307.7187      -5.8585407      0              58.538421      2037.0501    
   1632000   300.77361     -6.052496       0              56.891051      2005.7393    
   1633000   284.55594     -4.4688827      0              55.080758      2071.9265    
   1634000   308.71502     -4.7709134      0              59.83455       2148.9208    
   1635000   303.27555     -4.873932       0              58.593203      2149.5608    
   1636000   302.64009     -3.9916077      0              59.342542      2132.6522    
   1637000   299.83532     -5.8027767      0              56.944412      2067.6465    
   1638000   312.27037     -4.8168708      0              60.532629      2117.6245    
   1639000   304.45748     -5.7434099      0              57.97107       2002.1601    
   1640000   300.96095     -6.034464       0              56.948288      2032.4782    
   1641000   296.50675     -5.417495       0              56.633118      2053.5263    
   1642000   299.72994     -6.3351728      0              56.389963      2112.801     
   1643000   298.32411     -4.8941652      0              57.53677       2043.7992    
   1644000   304.31854     -3.5365053      0              60.148897      2166.058     
   1645000   293.43108     -5.0667981      0              56.340162      2026.8764    
   1646000   304.89839     -4.5775633      0              59.229185      2080.6597    
   1647000   290.1295      -4.779278       0              55.936753      2057.5205    
   1648000   298.42639     -4.4419474      0              58.010392      2102.9033    
   1649000   301.68375     -3.9674478      0              59.166566      2129.6877    
   1650000   295.58939     -4.2595849      0              57.59905       2088.7715    
   1651000   301.52762     -4.4957601      0              58.605581      2148.1155    
   1652000   315.69274     -6.1592237      0              59.906482      2067.6196    
   1653000   291.44022     -4.6887292      0              56.3016        2123.9698    
   1654000   308.61606     -5.3606268      0              59.224128      2148.8063    
   1655000   306.77619     -4.8673497      0              59.332372      2155.1662    
   1656000   306.69768     -5.158024       0              59.025266      2077.6285    
   1657000   293.51206     -4.7101934      0              56.713713      2037.8705    
   1658000   294.8945      -5.2779807      0              56.435232      2021.282     
   1659000   292.48889     -3.7216403      0              57.488147      2133.9728    
   1660000   307.38611     -5.3199362      0              59.007424      2016.6754    
   1661000   294.79219     -4.5066646      0              57.185138      2168.8148    
   1662000   295.6169      -3.7567241      0              58.107667      2102.0006    
   1663000   301.3023      -4.2722365      0              58.781952      2120.311     
   1664000   291.57218     -6.2893424      0              54.728602      2066.4499    
   1665000   303.06267     -3.9259203      0              59.496663      2117.2322    
   1666000   296.81876     -4.6945357      0              57.421371      2129.8062    
   1667000   304.19763     -5.1537749      0              58.506325      1997.449     
   1668000   301.53241     -6.3425175      0              56.759825      2015.891     
   1669000   296.65527     -3.5631783      0              58.518516      2106.9051    
   1670000   294.24507     -3.2221828      0              58.355122      2224.7016    
   1671000   293.38349     -5.9240615      0              55.472939      2036.321     
   1672000   296.6912      -4.8731072      0              57.216105      2073.837     
   1673000   301.91859     -4.2735939      0              58.909566      2129.3974    
   1674000   309.90568     -4.6831982      0              60.171438      2206.484     
   1675000   291.55547     -4.2609225      0              56.753525      2019.6158    
   1676000   293.52968     -5.0060629      0              56.421532      2048.2914    
   1677000   301.48096     -4.8507109      0              58.240865      2067.4534    
   1678000   299.24325     -6.7895806      0              55.833704      1994.0265    
   1679000   293.3424      -5.2995374      0              56.088865      1994.0696    
   1680000   298.6743      -6.4016184      0              56.102603      2011.3159    
   1681000   293.88997     -6.2039724      0              55.299021      1957.3461    
   1682000   285.3765      -4.6305651      0              55.090796      1960.9466    
   1683000   305.82609     -5.1153942      0              58.885498      2138.9112    
   1684000   304.88682     -4.7958829      0              59.008445      2022.78      
   1685000   295.33577     -4.4769136      0              57.328645      2040.1015    
   1686000   294.42671     -3.8905071      0              57.72481       2134.5404    
   1687000   297.53755     -5.5766357      0              56.689694      1974.4207    
   1688000   303.66405     -4.800436       0              58.748001      2196.674     
   1689000   295.11036     -4.9683602      0              56.790028      1970.498     
   1690000   298.35906     -3.7429999      0              58.69525       2121.6859    
   1691000   288.32684     -3.7610167      0              56.577768      2030.0759    
   1692000   286.29837     -4.1006742      0              55.813609      2080.5844    
   1693000   305.5272      -2.5504482      0              61.387893      2120.4083    
   1694000   305.69593     -4.2701469      0              59.703505      2149.0235    
   1695000   302.94697     -5.1276759      0              58.270694      2110.9329    
   1696000   302.35246     -5.0500314      0              58.223926      2007.9771    
   1697000   287.44796     -3.5329613      0              56.621899      2208.7836    
   1698000   305.67452     -5.3254744      0              58.643697      2100.1655    
   1699000   301.21959     -4.4987083      0              58.538171      2031.1578    
   1700000   293.18078     -3.0566649      0              58.297914      2153.0456    
   1701000   303.87479     -2.9070425      0              60.685495      2106.8107    
   1702000   304.76467     -4.6109819      0              59.167783      2115.7647    
   1703000   308.59466     -4.7230197      0              59.857256      2079.4441    
   1704000   294.42158     -3.4204147      0              58.193831      2091.4155    
   1705000   300.6296      -4.5269323      0              58.386477      2157.272     
   1706000   295.53224     -4.7831468      0              57.063528      2036.0358    
   1707000   298.19689     -3.4632217      0              58.94109       2047.149     
   1708000   301.40238     -3.7645455      0              59.310585      2198.4344    
   1709000   304.11981     -4.0336522      0              59.610161      2196.6244    
   1710000   302.04638     -3.766652       0              59.44325       2187.3711    
   1711000   310.29699     -4.6810999      0              60.255427      2094.3857    
   1712000   305.30433     -3.7210232      0              60.170679      2100.1321    
   1713000   287.33044     -3.1921296      0              56.938136      2023.9063    
   1714000   299.27179     -4.1659806      0              58.463277      2226.6012    
   1715000   292.19414     -4.3836196      0              56.764483      1995.1068    
   1716000   302.72093     -4.1918418      0              59.159225      2158.6875    
   1717000   303.62461     -4.9900647      0              58.550117      2086.7924    
   1718000   300.16587     -4.6352579      0              58.181107      2069.5175    
   1719000   302.32852     -5.339882       0              57.929064      2077.7972    
   1720000   301.25472     -4.8697748      0              58.174457      2100.6784    
   1721000   311.3863      -5.3775717      0              59.786917      2056.6986    
   1722000   296.41386     -3.810174       0              58.221         2051.6222    
   1723000   310.38548     -5.8337114      0              59.121333      2154.2044    
   1724000   304.4284      -4.7517929      0              58.956601      2088.4537    
   1725000   302.52709     -6.6390838      0              56.671418      1952.4015    
   1726000   305.30484     -3.452868       0              60.438939      2123.2793    
   1727000   299.69539     -4.2687415      0              58.449164      2209.8115    
   1728000   303.54601     -5.3733391      0              58.150394      2126.7224    
   1729000   289.54115     -4.6864679      0              55.906437      2050.9642    
   1730000   299.47715     -3.7805852      0              58.89165       2162.7847    
   1731000   311.47787     -3.4434206      0              61.74023       2187.4531    
   1732000   304.3104      -2.7119773      0              60.971721      2138.6414    
   1733000   283.51318     -3.2073614      0              56.124059      2028.7368    
   1734000   295.86179     -4.8166624      0              57.098978      2117.585     
   1735000   291.3868      -5.0306837      0              55.948466      2159.195     
   1736000   310.16427     -4.6400404      0              60.26871       2089.4475    
   1737000   290.17215     -4.4880557      0              56.236901      2158.4126    
   1738000   301.13803     -4.6339414      0              58.38587       1966.627     
   1739000   297.20505     -7.1537509      0              55.042996      2036.2276    
   1740000   297.34011     -5.5674635      0              56.657549      2076.1113    
   1741000   303.93458     -4.216997       0              59.388054      2074.4066    
   1742000   294.9007      -5.7559606      0              55.95855       1962.9352    
   1743000   303.85225     -4.9714538      0              58.616367      2135.9246    
   1744000   297.006       -4.5983183      0              57.556773      2111.9878    
   1745000   294.06136     -3.4458366      0              58.093024      2278.3852    
   1746000   303.86173     -5.2111196      0              58.378686      2091.2837    
   1747000   299.01992     -2.3751943      0              60.201354      2106.0307    
   1748000   291.27491     -4.6593812      0              56.296353      2112.066     
   1749000   287.831       -4.2888967      0              55.946122      2087.9411    
   1750000   306.83669     -3.8737425      0              60.338638      2115.6672    
   1751000   303.50657     -5.9066829      0              57.608797      2043.3719    
   1752000   293.37072     -4.412731       0              56.981597      2142.2876    
   1753000   311.44184     -5.3643354      0              59.811775      2114.0805    
   1754000   298.41379     -5.5084368      0              56.941266      2009.5979    
   1755000   299.95233     -4.2370496      0              58.534627      2069.9136    
   1756000   295.19823     -5.7539367      0              56.022838      2053.0148    
   1757000   295.95935     -4.779166       0              57.156891      2029.097     
   1758000   296.78582     -3.7165324      0              58.392481      2078.5844    
   1759000   301.55373     -4.7854763      0              58.321329      2155.0835    
   1760000   300.91952     -3.4689384      0              59.505143      2090.5354    
   1761000   306.32848     -4.4055277      0              59.7005        2079.968     
   1762000   293.19729     -3.3746135      0              57.983422      2085.5064    
   1763000   301.73421     -4.7351845      0              58.409389      2061.3528    
   1764000   296.83353     -4.4716338      0              57.647365      2129.832     
   1765000   290.26503     -4.8300768      0              55.914317      2068.6093    
   1766000   303.95321     -4.9949716      0              58.613978      2033.1734    
   1767000   303.09831     -4.8989914      0              58.53105       2132.0798    
   1768000   291.79454     -4.2706232      0              56.793855      1994.84      
   1769000   297.69348     -5.3176253      0              56.981337      2034.0448    
   1770000   318.66574     -4.6584121      0              62.029461      2029.9741    
   1771000   295.55781     -5.9368161      0              55.915209      2058.2542    
   1772000   301.53613     -4.6493842      0              58.453738      2119.0905    
   1773000   294.73255     -3.4501691      0              58.229153      2096.2889    
   1774000   307.87383     -5.4311264      0              58.9983        2125.9312    
   1775000   308.42967     -4.7978304      0              59.747917      2133.0854    
   1776000   297.72515     -3.4062981      0              58.899292      2142.4946    
   1777000   298.04131     -5.8550658      0              56.516686      2045.2907    
   1778000   294.11542     -3.8843988      0              57.665775      2151.9511    
   1779000   307.70426     -4.1423194      0              60.25162       2094.436     
   1780000   300.36349     -4.4082255      0              58.449496      2173.3845    
   1781000   287.8099      -4.9437769      0              55.286827      2000.1876    
   1782000   291.57808     -5.7304022      0              55.288778      2080.3816    
   1783000   309.04518     -4.4542896      0              60.220268      2213.8481    
   1784000   306.06758     -5.980755       0              58.070674      2019.5255    
   1785000   286.54136     -4.4813558      0              55.483778      2074.3028    
   1786000   305.59019     -3.3388849      0              60.61264       2086.4222    
   1787000   303.03122     -4.5280792      0              58.887923      2080.5808    
   1788000   302.9098      -4.8685974      0              58.521995      2090.7395    
   1789000   307.95061     -5.7940041      0              58.65149       2045.7896    
   1790000   306.45936     -3.1727491      0              60.960667      2211.7816    
   1791000   293.09851     -3.2575973      0              58.079765      2080.9604    
   1792000   295.93379     -4.7569284      0              57.173779      2113.4817    
   1793000   307.8426      -6.1286766      0              58.294213      2122.266     
   1794000   302.26473     -3.4652149      0              59.790382      2044.4978    
   1795000   305.90827     -3.2211208      0              60.796969      2148.1051    
   1796000   292.41714     -3.9683347      0              57.226435      2076.5937    
   1797000   306.63537     -4.6257983      0              59.544453      2154.6495    
   1798000   298.69143     -4.5625727      0              57.945233      2064.1446    
   1799000   299.06408     -5.6616925      0              56.924097      2094.2521    
   1800000   301.09542     -5.2145379      0              57.796355      2217.5088    
   1801000   299.96805     -4.5251498      0              58.249816      2124.9173    
   1802000   305.29881     -4.006105       0              59.88444       2126.3693    
   1803000   291.35086     -4.3416551      0              56.629974      2044.7349    
   1804000   301.76765     -5.0661254      0              58.085447      2054.1313    
   1805000   296.8215      -4.4178097      0              57.698672      1979.9748    
   1806000   290.80518     -5.9132274      0              54.944206      2057.1258    
   1807000   290.77629     -5.4960581      0              55.355328      2087.6193    
   1808000   296.34832     -3.0933602      0              58.924098      2105.7135    
   1809000   308.68677     -3.2792694      0              61.320283      2115.0732    
   1810000   296.29371     -4.6816204      0              57.324409      2139.7147    
   1811000   295.15513     -4.8092434      0              56.958513      2092.5382    
   1812000   298.56012     -5.3081673      0              57.172158      1991.9712    
   1813000   294.9928      -5.210127       0              56.523658      2041.5739    
   1814000   296.53405     -4.9406014      0              57.115724      2169.5134    
   1815000   296.60783     -4.8882246      0              57.183542      2047.5388    
   1816000   297.36096     -5.607876       0              56.621498      1988.0032    
   1817000   300.96206     -3.1961055      0              59.786879      2246.2744    
   1818000   295.07868     -5.1521042      0              56.599653      2034.146     
   1819000   302.95355     -5.5036025      0              57.896146      2001.0819    
   1820000   295.71464     -4.0465678      0              57.838278      2067.1318    
   1821000   301.89805     -6.1806637      0              56.998198      1965.4304    
   1822000   291.54597     -3.1907963      0              57.821662      2034.6178    
   1823000   288.25845     -4.265513       0              56.058959      2084.2479    
   1824000   296.88924     -4.726759       0              57.403899      2094.7453    
   1825000   300.50721     -4.9436813      0              57.944117      2032.1444    
   1826000   299.31378     -3.3680839      0              59.269961      2073.8209    
   1827000   304.39679     -5.4325128      0              58.269265      2073.8501    
   1828000   298.65544     -5.2993459      0              57.200928      2069.9496    
   1829000   304.217       -4.2845131      0              59.37964       2143.4243    
   1830000   314.45314     -4.6786568      0              61.127636      2116.9947    
   1831000   308.51409     -5.3408896      0              59.222524      2108.6021    
   1832000   303.62258     -5.2451759      0              58.294581      2157.7906    
   1833000   311.00896     -3.1522992      0              61.933222      2204.3373    
   1834000   295.41051     -3.3534628      0              58.467737      2099.506     
   1835000   300.61726     -6.8450826      0              56.065746      2026.9979    
   1836000   307.42746     -5.7547757      0              58.581238      2093.9823    
   1837000   295.0267      -5.0340486      0              56.706831      2034.8918    
   1838000   291.17166     -4.428638       0              56.505488      2043.5994    
   1839000   291.22669     -5.8857117      0              55.059931      1998.0073    
   1840000   314.03123     -6.5529072      0              59.165092      1999.6706    
   1841000   302.24581     -2.6406476      0              60.610991      2216.8651    
   1842000   304.78033     -4.4822214      0              59.299821      2103.9484    
   1843000   305.1247      -4.9796919      0              58.874417      1973.2013    
   1844000   311.0349      -4.7804151      0              60.310534      2179.0942    
   1845000   295.41072     -3.5419098      0              58.279333      2042.4013    
   1846000   298.21938     -3.1234244      0              59.285594      2230.1837    
   1847000   291.44594     -4.6869084      0              56.304617      2039.5507    
   1848000   307.25155     -4.6973405      0              59.60186       2089.2246    
   1849000   301.09383     -3.4631505      0              59.547409      2118.7921    
   1850000   299.38248     -4.7516579      0              57.900764      2121.8528    
   1851000   287.92134     -5.0578154      0              55.196109      1976.5579    
   1852000   309.56732     -3.9194186      0              60.864409      2156.6901    
   1853000   301.66791     -4.0344176      0              59.096282      2044.2983    
   1854000   302.80265     -3.5834207      0              59.784749      2137.9816    
   1855000   292.71386     -4.3729006      0              56.883966      2106.4537    
   1856000   299.57543     -5.6112342      0              57.081567      2003.5407    
   1857000   297.38981     -4.9319018      0              57.303511      2055.07      
   1858000   306.68183     -4.3014384      0              59.878536      2106.8437    
   1859000   307.4376      -6.561991       0              57.776143      2007.6829    
   1860000   283.67021     -4.3677968      0              54.996486      2064.5912    
   1861000   303.71769     -3.4242108      0              60.135451      2132.6884    
   1862000   302.56719     -4.9477593      0              58.371134      2134.5847    
   1863000   304.75508     -4.1152547      0              59.661504      2126.6794    
   1864000   298.98557     -5.373534       0              57.195827      2037.3832    
   1865000   294.14569     -5.3915268      0              56.164981      2114.7016    
   1866000   301.10454     -5.3816156      0              57.631186      2069.0237    
   1867000   300.2541      -3.9456129      0              58.889216      2055.6813    
   1868000   300.45619     -3.8334861      0              59.043635      2096.3055    
   1869000   296.78507     -5.0092088      0              57.099647      2048.0706    
   1870000   299.97151     -4.2049153      0              58.570775      2031.1393    
   1871000   305.37604     -5.4067287      0              58.49998       2099.6239    
   1872000   300.4416      -4.8660541      0              58.008013      2107.6008    
   1873000   297.67418     -4.1338388      0              58.161084      2155.2115    
   1874000   301.13146     -5.9256169      0              57.092818      2007.501     
   1875000   299.25384     -4.1631559      0              58.462347      2082.5668    
   1876000   297.88109     -4.7603904      0              57.577834      1987.2216    
   1877000   305.42091     -4.9268774      0              58.989221      2133.2093    
   1878000   305.91464     -4.5636824      0              59.45574       2023.3181    
   1879000   299.03201     -5.9959939      0              56.583085      2038.6694    
   1880000   299.36001     -3.9597955      0              58.687925      2106.9009    
   1881000   303.84509     -4.9575295      0              58.628793      2045.1195    
   1882000   307.19004     -4.2789505      0              60.007377      2076.6235    
   1883000   291.35182     -5.4099848      0              55.561845      2156.5204    
   1884000   300.4529      -3.6630497      0              59.213381      2146.8984    
   1885000   301.53337     -4.1256795      0              58.976864      2136.9657    
   1886000   304.91534     -4.7088115      0              59.101484      2164.0767    
   1887000   294.28014     -3.1503884      0              58.434256      2088.4687    
   1888000   300.00365     -4.13391        0              58.648506      2048.6317    
   1889000   282.77587     -4.9472833      0              54.229838      1950.1991    
   1890000   296.2082      -4.7584024      0              57.229731      2027.0233    
   1891000   303.39076     -4.0375588      0              59.453685      2197.5829    
   1892000   296.44326     -6.0960592      0              55.941267      2086.8571    
   1893000   313.92711     -4.1769325      0              61.519277      2219.8834    
   1894000   296.58041     -5.6965391      0              56.369489      2037.3104    
   1895000   295.36747     -6.055813       0              55.756379      2066.4631    
   1896000   295.2886      -4.4469112      0              57.348777      2087.5261    
   1897000   311.43007     -5.8592103      0              59.314437      2027.3632    
   1898000   297.50488     -3.835537       0              58.423955      2084.7624    
   1899000   300.89314     -4.2062601      0              58.762302      2069.0446    
   1900000   300.92697     -5.1850338      0              57.790607      2047.9535    
   1901000   294.17666     -4.1468467      0              57.416143      2119.5326    
   1902000   304.15639     -4.5456463      0              59.105822      2106.5958    
   1903000   300.73179     -5.7701822      0              57.164614      2033.9177    
   1904000   297.42877     -5.7439249      0              56.499641      2119.3566    
   1905000   308.21165     -5.7367451      0              58.763378      2024.6553    
   1906000   295.10068     -5.1544916      0              56.60187       2011.8305    
   1907000   289.59886     -4.1736943      0              56.431288      2186.3343    
   1908000   302.92398     -3.5695626      0              59.823997      2097.2446    
   1909000   305.75197     -4.0557572      0              59.929623      2116.817     
   1910000   298.92616     -5.4919553      0              57.064972      2127.4012    
   1911000   299.41818     -4.3349215      0              58.324972      2037.4639    
   1912000   304.08451     -5.4999544      0              58.136472      1965.279     
   1913000   302.09143     -4.6936757      0              58.525655      2099.09      
   1914000   306.20538     -3.2913556      0              60.78891       2178.8024    
   1915000   295.2642      -5.1229144      0              56.667668      2167.2622    
   1916000   306.04624     -5.917889       0              58.129074      2160.5403    
   1917000   293.03593     -3.8650756      0              57.459191      2028.9646    
   1918000   309.94024     -3.2412232      0              61.620645      2108.3978    
   1919000   299.39885     -4.899788       0              57.756061      2088.8482    
   1920000   296.62951     -5.5262006      0              56.550103      1987.417     
   1921000   302.88779     -5.15575        0              58.230237      2116.2134    
   1922000   298.45218     -5.2669268      0              57.190809      2048.3335    
   1923000   303.93482     -4.7281459      0              58.876956      2081.793     
   1924000   306.3288      -5.4253061      0              58.680788      2054.8345    
   1925000   286.01551     -4.8679945      0              54.987093      2047.8377    
   1926000   290.32492     -3.8673468      0              56.88958       2125.1972    
   1927000   307.2028      -4.6898633      0              59.599135      2133.6605    
   1928000   305.08109     -5.2541996      0              58.590784      2066.9766    
   1929000   292.18554     -4.7884296      0              56.357874      2017.0496    
   1930000   296.09587     -3.6957094      0              58.268918      2126.159     
   1931000   301.88492     -2.6793212      0              60.496792      2109.27      
   1932000   282.64413     -4.3738795      0              54.775673      2131.8366    
   1933000   303.85865     -5.271472       0              58.317689      2111.4624    
   1934000   286.2397      -3.0915635      0              56.81044       2096.6803    
   1935000   300.66486     -3.2505033      0              59.670286      2173.7913    
   1936000   290.70771     -3.702037       0              57.134999      2099.7163    
   1937000   297.56972     -5.0275721      0              57.24549       2115.1724    
   1938000   304.63699     -3.1428221      0              60.609224      2193.1612    
   1939000   303.76243     -4.9706619      0              58.598363      2091.6096    
   1940000   302.33903     -3.6227096      0              59.648436      2075.3993    
   1941000   311.20839     -4.108432       0              61.018826      2112.1362    
   1942000   297.8859      -4.8574268      0              57.481804      2109.8358    
   1943000   300.54033     -3.5186326      0              59.376096      2123.2997    
   1944000   303.99084     -3.7269668      0              59.889857      2101.3511    
   1945000   301.9685      -4.226259       0              58.967345      2156.9399    
   1946000   294.9547      -4.5287555      0              57.197056      2115.7195    
   1947000   308.35195     -3.224368       0              61.305116      2122.622     
   1948000   313.17179     -3.5274627      0              62.010679      2167.0905    
   1949000   308.84671     -4.2560116      0              60.377012      2068.8422    
   1950000   297.5356      -5.0827621      0              57.18316       2138.168     
   1951000   297.60047     -4.4516624      0              57.827834      2086.7906    
   1952000   296.38353     -4.4236422      0              57.601183      1994.6752    
   1953000   296.30646     -4.2352719      0              57.773425      2014.5739    
   1954000   301.46747     -4.286825       0              58.801929      2084.6012    
   1955000   306.98245     -4.8462072      0              59.396677      2075.3284    
   1956000   292.15304     -4.961668       0              56.177833      2007.6988    
   1957000   294.70994     -4.4578965      0              57.216693      2111.1156    
   1958000   314.87717     -5.1901432      0              60.704888      2122.2672    
   1959000   301.39163     -4.3519545      0              58.720927      2025.0938    
   1960000   299.46556     -2.8874949      0              59.782314      2124.3843    
   1961000   298.88173     -3.9770107      0              58.570619      2185.2253    
   1962000   293.89863     -5.7567326      0              55.748073      2030.1487    
   1963000   309.15379     -4.1260034      0              60.571282      2130.8397    
   1964000   293.42955     -5.963719       0              55.44292       2067.4959    
   1965000   298.57783     -5.9671566      0              56.516875      2011.4103    
   1966000   294.60029     -5.7216957      0              55.929947      2078.8332    
   1967000   297.11453     -4.2714434      0              57.906361      2090.7469    
   1968000   298.28113     -5.6452511      0              56.77669       2133.7578    
   1969000   310.77631     -4.6750463      0              60.361788      2102.5075    
   1970000   303.48488     -6.1582718      0              57.352669      2047.6849    
   1971000   293.36132     -3.6108695      0              57.781492      2123.5178    
   1972000   304.64573     -5.7039087      0              58.049965      2134.3738    
   1973000   299.01799     -4.1235767      0              58.452568      2149.8045    
   1974000   304.79291     -3.2384647      0              60.54621       2174.8351    
   1975000   306.41367     -5.3424265      0              58.781428      2043.5093    
   1976000   307.58332     -4.9868807      0              59.38175       1992.0337    
   1977000   297.52388     -5.8856847      0              56.377785      2080.0041    
   1978000   292.56903     -5.3667916      0              55.859766      2037.0324    
   1979000   298.17946     -3.8754444      0              58.525219      2066.396     
   1980000   283.1577      -3.0167449      0              56.240282      2109.0563    
   1981000   303.19771     -4.7262151      0              58.724629      2124.9817    
   1982000   295.59271     -4.6048315      0              57.254499      2111.0733    
   1983000   295.0273      -4.1541639      0              57.586841      2125.1343    
   1984000   297.35523     -4.8668942      0              57.361282      2088.6854    
   1985000   295.36815     -5.0614273      0              56.750908      2003.8307    
   1986000   304.21861     -3.5582416      0              60.106248      2176.8586    
   1987000   299.76101     -4.7843568      0              57.947283      2035.2442    
   1988000   307.00733     -4.6935095      0              59.554583      2120.786     
   1989000   303.64944     -4.3065955      0              59.238783      2132.0464    
   1990000   301.01949     -5.9087897      0              57.086213      2089.0095    
   1991000   303.49557     -3.0774672      0              60.435711      2258.9592    
   1992000   298.58164     -5.0181446      0              57.466685      2107.647     
   1993000   292.61602     -1.9783122      0              59.258078      2309.0251    
   1994000   305.2643      -4.7879039      0              59.095419      2070.4739    
   1995000   299.20482     -4.4090876      0              58.206156      2159.2716    
   1996000   309.90182     -4.7214974      0              60.13233       2159.2393    
   1997000   292.21797     -2.0458845      0              59.107205      2137.1259    
   1998000   305.41971     -4.6802421      0              59.235606      2076.8665    
   1999000   300.39405     -5.0404791      0              57.823636      2227.9207    
   2000000   310.99523     -4.8046099      0              60.278038      2137.4773    
   2000101   302.28305     -4.873241       0              58.38619       2094.6765    
Loop time of 35873.4 on 16 procs for 2000000 steps with 1620 atoms

Performance: 2.408 ns/day, 9.965 hours/ns, 55.752 timesteps/s
79.2% CPU use with 16 MPI tasks x 1 OpenMP threads

MPI task timing breakdown:
Section |  min time  |  avg time  |  max time  |%varavg| %total
---------------------------------------------------------------
Pair    | 8334.9     | 9201.5     | 9903.2     | 618.2 | 25.65
Bond    | 0.99903    | 1.1089     | 1.2042     |   4.7 |  0.00
Neigh   | 12.938     | 13.807     | 14.719     |  20.4 |  0.04
Comm    | 16457      | 17303      | 17937      | 365.9 | 48.23
Output  | 40.856     | 40.959     | 41.132     |   1.2 |  0.11
Modify  | 6239.4     | 7242       | 8237       |1166.1 | 20.19
Other   |            | 2071       |            |       |  5.77

Nlocal:         101.25 ave         113 max          94 min
Histogram: 2 1 4 1 5 1 0 0 0 2
Nghost:        5075.56 ave        5136 max        5013 min
Histogram: 1 2 2 1 3 1 0 3 1 2
Neighs:        51665.9 ave       60399 max       44702 min
Histogram: 2 0 2 3 2 1 5 0 0 1

Total # of neighbors = 826654
Ave neighs/atom = 510.28025
Ave special neighs/atom = 0
Neighbor list builds = 10382
Dangerous builds = 0
comm_modify cutoff 27.58
compute myRDF all rdf 1129 cutoff 22.58
fix 2 all ave/time 1 1 1 c_myRDF[*] file ljg2_nvt_50rdf.rdf mode vector
run 0 pre yes post no
Generated 0 of 0 mixed pair_coeff terms from geometric mixing rule
WARNING: Compute rdf cutoff less than neighbor cutoff - forcing a needless neighbor list build (src/compute_rdf.cpp:179)
Neighbor list info ...
  update every 1 steps, delay 0 steps, check yes
  max neighbors/atom: 200000, page size: 2000000000
  master list distance cutoff = 27
  ghost atom cutoff = 27.58
  binsize = 13.5, bins = 4 5 4
  4 neighbor lists, perpetual/occasional/extra = 3 1 0
  (1) pair lj/cut, perpetual
      attributes: half, newton on
      pair build: half/bin/newton
      stencil: half/bin/3d
      bin: standard
  (2) pair gauss/cut, perpetual, copy from (1)
      attributes: half, newton on
      pair build: copy
      stencil: none
      bin: none
  (3) pair gauss/cut, perpetual, copy from (1)
      attributes: half, newton on
      pair build: copy
      stencil: none
      bin: none
  (4) compute rdf, occasional
      attributes: half, newton on, cut 24.58
      pair build: half/bin/newton
      stencil: half/bin/3d
      bin: standard
Per MPI rank memory allocation (min/avg/max) = 3.053e+04 | 3.053e+04 | 3.053e+04 Mbytes
   Step          Temp          E_pair         E_mol          TotEng         Press     
   2000101   302.28305     -4.873241       0              58.38619       2094.6765    
Loop time of 4.071e-06 on 16 procs for 0 steps with 1620 atoms

uncompute myRDF
unfix 2
write_data ljg2_nvt_50/ca_md.data nocoeff nofix
System init for write_data ...
Generated 0 of 0 mixed pair_coeff terms from geometric mixing rule
Neighbor list info ...
  update every 1 steps, delay 0 steps, check yes
  max neighbors/atom: 200000, page size: 2000000000
  master list distance cutoff = 27
  ghost atom cutoff = 27.58
  binsize = 13.5, bins = 4 5 4
  3 neighbor lists, perpetual/occasional/extra = 3 0 0
  (1) pair lj/cut, perpetual
      attributes: half, newton on
      pair build: half/bin/newton
      stencil: half/bin/3d
      bin: standard
  (2) pair gauss/cut, perpetual, copy from (1)
      attributes: half, newton on
      pair build: copy
      stencil: none
      bin: none
  (3) pair gauss/cut, perpetual, copy from (1)
      attributes: half, newton on
      pair build: copy
      stencil: none
      bin: none
Total wall time: 9:58:30
