region box block 0 52.794504272175 0 54.794296100667 0 45.195295323908
units metal
dimension 3
boundary p p p
atom_style full
create_box 1 box
Created orthogonal box = (0 0 0) to (52.794504 54.794296 45.195295)
  2 by 4 by 2 MPI processor grid
create_atoms 1 random 1620 51 box
Created 1620 atoms
  using lattice units in orthogonal box = (0 0 0) to (52.794504 54.794296 45.195295)
  create_atoms CPU = 0.113 seconds
mass 1 40.078
pair_style hybrid/overlay lj/cut 25 gauss/cut 25 gauss/cut 25
pair_coeff 1 1 lj/cut 0.009507177838705264 3.7584971993521488
pair_coeff 1 1 gauss/cut 1 -0.0597999248039827 5.991246456844763 0.601172550524922
pair_coeff 1 1 gauss/cut 2 0.0726183915985775 5.919659952808235 0.9307156951487607
run 1
WARNING: No fixes with time integration, atoms won't move (src/verlet.cpp:60)
Generated 0 of 0 mixed pair_coeff terms from geometric mixing rule
Neighbor list info ...
  update every 1 steps, delay 10 steps, check yes
  max neighbors/atom: 2000, page size: 100000
  master list distance cutoff = 27
  ghost atom cutoff = 27
  binsize = 13.5, bins = 4 5 4
  3 neighbor lists, perpetual/occasional/extra = 3 0 0
  (1) pair lj/cut, perpetual
      attributes: half, newton on
      pair build: half/bin/newton
      stencil: half/bin/3d
      bin: standard
  (2) pair gauss/cut, perpetual, copy from (1)
      attributes: half, newton on
      pair build: copy
      stencil: none
      bin: none
  (3) pair gauss/cut, perpetual, copy from (1)
      attributes: half, newton on
      pair build: copy
      stencil: none
      bin: none
Per MPI rank memory allocation (min/avg/max) = 6.99 | 6.995 | 7.003 Mbytes
   Step          Temp          E_pair         E_mol          TotEng         Press     
         0   0              2.1264092e+11  0              2.1264092e+11  1.0423175e+13
         1   0              2.1264092e+11  0              2.1264092e+11  1.0423175e+13
Loop time of 0.106229 on 16 procs for 1 steps with 1620 atoms

Performance: 0.813 ns/day, 29.508 hours/ns, 9.414 timesteps/s
85.0% CPU use with 16 MPI tasks x 1 OpenMP threads

MPI task timing breakdown:
Section |  min time  |  avg time  |  max time  |%varavg| %total
---------------------------------------------------------------
Pair    | 0.0063415  | 0.0095864  | 0.02192    |   4.6 |  9.02
Bond    | 9.58e-07   | 1.8826e-06 | 1.0968e-05 |   0.0 |  0.00
Neigh   | 0          | 0          | 0          |   0.0 |  0.00
Comm    | 0.057449   | 0.077319   | 0.084606   |   2.7 | 72.79
Output  | 0.016961   | 0.018382   | 0.019786   |   1.0 | 17.30
Modify  | 1.778e-06  | 3.3553e-06 | 8.044e-06  |   0.0 |  0.00
Other   |            | 0.0009357  |            |       |  0.88

Nlocal:         101.25 ave         120 max          85 min
Histogram: 1 1 3 3 2 2 1 0 2 1
Nghost:        5031.25 ave        5128 max        4960 min
Histogram: 1 3 2 1 4 1 1 2 0 1
Neighs:        51674.7 ave       61218 max       43558 min
Histogram: 4 0 2 2 0 2 2 1 1 2

Total # of neighbors = 826795
Ave neighs/atom = 510.36728
Ave special neighs/atom = 0
Neighbor list builds = 0
Dangerous builds = 0
thermo 1000
neighbor 2.0 bin
neigh_modify every 1 delay 0 check yes one 200000 page 2000000000
minimize 0.0 1.0e-8 100 1000
Generated 0 of 0 mixed pair_coeff terms from geometric mixing rule
Neighbor list info ...
  update every 1 steps, delay 0 steps, check yes
  max neighbors/atom: 200000, page size: 2000000000
  master list distance cutoff = 27
  ghost atom cutoff = 27
  binsize = 13.5, bins = 4 5 4
  3 neighbor lists, perpetual/occasional/extra = 3 0 0
  (1) pair lj/cut, perpetual
      attributes: half, newton on
      pair build: half/bin/newton
      stencil: half/bin/3d
      bin: standard
  (2) pair gauss/cut, perpetual, copy from (1)
      attributes: half, newton on
      pair build: copy
      stencil: none
      bin: none
  (3) pair gauss/cut, perpetual, copy from (1)
      attributes: half, newton on
      pair build: copy
      stencil: none
      bin: none
Per MPI rank memory allocation (min/avg/max) = 2.29e+04 | 2.29e+04 | 2.29e+04 Mbytes
   Step          Temp          E_pair         E_mol          TotEng         Press     
         1   0              2.1264092e+11  0              2.1264092e+11  1.0423175e+13
       101   0             -48.93413       0             -48.93413       762.78846    
Loop time of 7.00609 on 16 procs for 100 steps with 1620 atoms

86.1% CPU use with 16 MPI tasks x 1 OpenMP threads

Minimization stats:
  Stopping criterion = max iterations
  Energy initial, next-to-last, final = 
      212640917192.742  -48.6895368303982   -48.934129687694
  Force two-norm initial, final = 1.0732578e+13 0.47180167
  Force max component initial, final = 6.2065507e+12 0.063777941
  Final line search alpha, max atom move = 1 0.063777941
  Iterations, force evaluations = 100 115

MPI task timing breakdown:
Section |  min time  |  avg time  |  max time  |%varavg| %total
---------------------------------------------------------------
Pair    | 0.78068    | 1.0044     | 1.3178     |  16.8 | 14.34
Bond    | 0.00011189 | 0.00014264 | 0.00016856 |   0.0 |  0.00
Neigh   | 0.011146   | 0.013692   | 0.025181   |   2.7 |  0.20
Comm    | 2.823      | 3.0612     | 3.3163     |   8.4 | 43.69
Output  | 6.5993e-05 | 6.7705e-05 | 7.1823e-05 |   0.0 |  0.00
Modify  | 0          | 0          | 0          |   0.0 |  0.00
Other   |            | 2.927      |            |       | 41.77

Nlocal:         101.25 ave         113 max          92 min
Histogram: 1 3 1 2 4 1 1 2 0 1
Nghost:        5046.56 ave        5121 max        4997 min
Histogram: 5 1 0 1 4 2 0 1 0 2
Neighs:        51670.2 ave       58452 max       45052 min
Histogram: 2 2 2 0 2 1 2 2 2 1

Total # of neighbors = 826724
Ave neighs/atom = 510.32346
Ave special neighs/atom = 0
Neighbor list builds = 7
Dangerous builds = 0
timestep 0.0005
fix 1 all nvt temp 300.0 300.0 $(100.0*dt)
fix 1 all nvt temp 300.0 300.0 0.050000000000000002776
fix removeMomentum all momentum 1 linear 1 1 1
dump 1 all custom 1000 ljg2_nvt_51/ca.traj id mol type mass x y z
dump_modify 1 sort id
run 2000000
Generated 0 of 0 mixed pair_coeff terms from geometric mixing rule
Per MPI rank memory allocation (min/avg/max) = 2.289e+04 | 2.289e+04 | 2.289e+04 Mbytes
   Step          Temp          E_pair         E_mol          TotEng         Press     
       101   0             -48.93413       0             -48.93413       762.78846    
      1000   167.91625     -45.819815      0             -10.679616      1190.1157    
      2000   284.30467     -10.698058      0              48.798999      1824.876     
      3000   308.70794     -6.2305798      0              58.373402      2140.2366    
      4000   305.6822      -6.0486918      0              57.922087      2072.9059    
      5000   296.03607     -5.3611844      0              56.590928      2038.7961    
      6000   300.8112      -4.7021791      0              58.249234      2107.5773    
      7000   310.87089     -5.466871       0              59.589757      2128.7766    
      8000   302.56604     -3.7599499      0              59.558703      2146.2819    
      9000   301.89179     -4.2740354      0              58.903517      2075.1019    
     10000   298.24894     -3.9076526      0              58.507552      2071.2243    
     11000   293.47581     -4.252375       0              57.163947      2055.2286    
     12000   299.17667     -4.5098091      0              58.099544      2098.9834    
     13000   293.75824     -5.0951496      0              56.380277      2025.5021    
     14000   293.21328     -4.730427       0              56.630953      2100.0296    
     15000   308.05075     -6.6476956      0              57.818755      2045.2998    
     16000   303.83436     -3.1475163      0              60.43656       2135.3687    
     17000   300.15615     -5.8286127      0              56.985718      1995.7962    
     18000   301.74814     -3.1275546      0              60.019934      2082.171     
     19000   299.94759     -4.426385       0              58.3443        2046.7058    
     20000   302.33422     -4.4199231      0              58.850216      2066.2375    
     21000   299.27608     -4.2612158      0              58.368941      2000.6171    
     22000   302.60369     -4.1204515      0              59.20608       2122.6307    
     23000   303.34604     -6.0139537      0              57.467931      2093.9313    
     24000   299.28381     -3.7344008      0              58.897373      2133.9775    
     25000   296.17191     -4.8680548      0              57.112485      1978.5813    
     26000   305.13157     -3.9826083      0              59.872939      2175.7627    
     27000   300.08078     -5.0691265      0              57.729432      2106.4045    
     28000   296.3847      -4.5415249      0              57.483545      2089.035     
     29000   295.48351     -4.1927217      0              57.643755      2111.2278    
     30000   310.45602     -5.4538766      0              59.51593       2169.3993    
     31000   306.45568     -4.2358278      0              59.896818      2060.0273    
     32000   299.89701     -2.4722857      0              60.287814      2153.6613    
     33000   303.1907      -3.0183202      0              60.431057      2158.9579    
     34000   302.36017     -3.8055937      0              59.469977      2191.7889    
     35000   297.93452     -4.1592733      0              58.190133      2147.1005    
     36000   298.46895     -5.4572964      0              57.003951      2151.5262    
     37000   298.40736     -2.7251622      0              59.723196      2144.5295    
     38000   299.98095     -5.4498211      0              57.327844      2139.7493    
     39000   298.35261     -4.1034614      0              58.333438      2142.7157    
     40000   297.47038     -4.3584037      0              57.893869      2174.6998    
     41000   296.78304     -5.5224993      0              56.585932      2121.8733    
     42000   293.93692     -4.4909454      0              57.021872      2058.1681    
     43000   312.25084     -4.749839       0              60.595573      2103.9351    
     44000   303.58153     -4.5447814      0              58.986386      2144.4504    
     45000   297.61581     -4.125621       0              58.157086      2126.4954    
     46000   294.80403     -4.7209327      0              56.973347      2125.453     
     47000   291.20557     -2.4604582      0              58.480764      2227.1999    
     48000   308.39849     -4.5122366      0              60.026986      2111.25      
     49000   303.94413     -5.0244299      0              58.58262       2048.184     
     50000   299.61002     -5.6841766      0              57.015864      2020.5561    
     51000   289.8861      -4.7659835      0              55.89911       2010.9563    
     52000   303.89778     -6.1807176      0              57.416633      1980.5124    
     53000   295.28319     -4.4455851      0              57.348971      2102.3195    
     54000   294.27408     -3.4347725      0              58.148604      2159.0392    
     55000   312.07651     -4.2769682      0              61.031962      2116.2149    
     56000   299.45273     -4.8786245      0              57.7885        2068.9931    
     57000   299.77956     -5.2459186      0              57.489602      2066.5039    
     58000   300.99678     -3.5091286      0              59.481123      2185.9988    
     59000   300.06493     -4.3813446      0              58.413897      2165.196     
     60000   295.72839     -5.7263396      0              56.161383      2026.1391    
     61000   305.60936     -3.6820956      0              60.27344       2130.0956    
     62000   291.25307     -5.853054       0              55.09811       1989.4825    
     63000   301.00668     -3.8432674      0              59.149055      2038.5961    
     64000   290.75506     -3.2778922      0              57.569051      2190.7539    
     65000   299.43156     -6.2886823      0              56.374012      2121.9942    
     66000   301.21929     -5.8286032      0              57.208213      2093.8841    
     67000   306.7252      -5.6686223      0              58.520428      2028.8927    
     68000   301.38641     -3.0019939      0              60.069796      2072.3484    
     69000   292.76917     -4.5344342      0              56.734006      2185.0021    
     70000   304.33829     -4.7862325      0              58.903303      2054.0868    
     71000   297.10406     -4.9536448      0              57.221968      1996.7604    
     72000   289.96242     -2.6418008      0              58.039264      2216.1537    
     73000   303.48102     -4.1178921      0              59.392242      2171.6895    
     74000   297.08896     -5.3784672      0              56.793986      2033.5259    
     75000   303.0129      -4.4802564      0              58.931912      2091.4109    
     76000   292.64903     -2.0770711      0              59.166228      2235.7836    
     77000   305.13846     -4.6630055      0              59.193984      2142.3422    
     78000   296.82342     -4.547084       0              57.569799      2044.2224    
     79000   297.96772     -4.2086531      0              58.1477        2044.3387    
     80000   312.54854     -5.6412577      0              59.766455      2129.2287    
     81000   294.71174     -5.7336656      0              55.941302      2116.0063    
     82000   292.53009     -4.9495934      0              56.268815      2074.0638    
     83000   296.63967     -5.471374       0              56.607055      2119.9102    
     84000   304.14718     -5.6697327      0              57.97981       2106.3719    
     85000   300.21831     -5.0067127      0              57.820626      1965.1037    
     86000   299.87111     -4.7223621      0              58.032316      2003.6162    
     87000   302.85971     -3.2331344      0              60.146976      2078.7267    
     88000   291.91128     -5.1222163      0              55.966691      2060.9264    
     89000   290.40439     -4.1175351      0              56.656023      2054.9373    
     90000   298.45774     -4.3471677      0              58.111733      2075.9297    
     91000   295.58312     -2.9019171      0              58.955406      2024.989     
     92000   296.54736     -5.0106486      0              57.048462      2132.9998    
     93000   299.27847     -5.1804994      0              57.450157      2074.8206    
     94000   299.15451     -4.5856298      0              58.019084      2124.713     
     95000   306.089       -3.7501644      0              60.305747      2071.5039    
     96000   294.83549     -3.9755437      0              57.725321      2041.9587    
     97000   297.58179     -5.2935818      0              56.982007      1965.7536    
     98000   305.34665     -4.1834673      0              59.71709       2067.5149    
     99000   293.80046     -3.4308048      0              58.053457      2168.7672    
    100000   294.47364     -3.3295951      0              58.295544      2208.2571    
    101000   302.42136     -3.8293007      0              59.459075      2088.7242    
    102000   307.84114     -4.6264875      0              59.796098      2108.4748    
    103000   298.81504     -4.0632747      0              58.470399      2188.0587    
    104000   296.05534     -4.924724       0              57.031422      2097.7507    
    105000   303.49144     -4.4125043      0              59.099809      1948.5705    
    106000   304.45798     -4.4315052      0              59.283079      2145.8733    
    107000   293.43518     -5.0505478      0              56.35727       2045.811     
    108000   314.13473     -4.1628796      0              61.576778      2068.8003    
    109000   300.2721      -2.4863643      0              60.35223       2129.6742    
    110000   302.88421     -4.8487886      0              58.536448      2020.7754    
    111000   305.13543     -4.2111614      0              59.645193      2107.8302    
    112000   295.71057     -7.0160871      0              54.867908      2062.7002    
    113000   297.9628      -5.6044102      0              56.750912      1979.2723    
    114000   294.27141     -3.5381687      0              58.044648      2112.3982    
    115000   307.11377     -3.6718543      0              60.598512      2106.8604    
    116000   290.26983     -4.9724629      0              55.772935      2063.1611    
    117000   294.47568     -3.8923298      0              57.733236      2145.5781    
    118000   287.08312     -3.4039979      0              56.674511      2053.5419    
    119000   295.16966     -3.5240817      0              58.246714      2157.5653    
    120000   293.61825     -2.99829        0              58.447839      2104.2416    
    121000   301.92497     -4.1018928      0              59.082603      2086.0427    
    122000   309.77358     -3.6678471      0              61.159144      2165.6311    
    123000   291.31241     -2.9700431      0              57.993539      2147.6655    
    124000   302.5579      -3.9700827      0              59.346867      2180.6864    
    125000   301.67802     -3.1588483      0              59.973967      2168.5939    
    126000   296.51826     -4.6712021      0              57.381819      2072.8001    
    127000   305.03945     -4.2019091      0              59.634359      2096.7187    
    128000   300.09511     -4.799316       0              58.00224       2085.0675    
    129000   297.60334     -4.1408596      0              58.139239      2060.4947    
    130000   301.30378     -5.2867155      0              57.767782      2140.0956    
    131000   301.9719      -4.6818236      0              58.512492      2000.6662    
    132000   291.94845     -5.8872354      0              55.209452      1960.7536    
    133000   294.49001     -4.4217562      0              57.206808      2125.6013    
    134000   296.48977     -3.8091947      0              58.237863      2055.1843    
    135000   294.06287     -6.3172589      0              55.221917      2076.7078    
    136000   295.71011     -5.3144635      0              56.569435      2046.8001    
    137000   294.25669     -5.0390246      0              56.540712      2159.8866    
    138000   289.6062      -3.9208375      0              56.685682      2120.5377    
    139000   306.67658     -2.9648675      0              61.214007      2167.9943    
    140000   310.92814     -3.4527431      0              61.615865      2157.036     
    141000   294.88218     -3.4966747      0              58.21396       2110.9855    
    142000   290.07752     -2.6416061      0              58.063548      2194.3724    
    143000   297.45191     -5.6183812      0              56.630026      1968.2217    
    144000   297.45686     -5.0269303      0              57.222514      2049.5475    
    145000   295.64915     -5.2676696      0              56.603471      2121.9415    
    146000   301.18693     -5.0795686      0              57.950475      2059.8697    
    147000   302.79027     -5.0206588      0              58.34492       2028.8051    
    148000   299.61403     -4.7312399      0              57.969639      2015.7714    
    149000   294.50711     -5.8141335      0              55.81801       2003.6613    
    150000   297.62765     -3.4697222      0              58.815464      2064.8503    
    151000   283.8733      -4.7761415      0              54.630642      2024.3757    
    152000   297.20888     -5.4456298      0              56.75192       2072.1164    
    153000   289.5723      -4.6799292      0              55.919495      2179.7168    
    154000   291.21761     -2.9683081      0              57.975434      1993.8768    
    155000   294.82007     -4.1052336      0              57.592403      2069.6508    
    156000   306.47804     -5.5259718      0              58.611354      1962.7066    
    157000   300.21958     -4.9583335      0              57.86927       2034.6453    
    158000   293.02961     -4.9105236      0              56.412421      2044.7071    
    159000   294.66946     -5.5386443      0              56.127474      2045.3025    
    160000   294.37579     -4.651243       0              56.953418      2107.7196    
    161000   296.394       -3.7694252      0              58.257592      2195.7786    
    162000   306.73697     -4.357643       0              59.833869      2003.0695    
    163000   305.36142     -4.5074316      0              59.396216      2106.761     
    164000   288.35059     -5.1540072      0              55.189748      2050.9141    
    165000   301.49356     -5.6061981      0              57.488015      2030.4143    
    166000   305.86482     -5.706086       0              58.302909      2008.3748    
    167000   299.43157     -4.2633237      0              58.399373      2086.8247    
    168000   300.91485     -5.0942742      0              57.878831      2035.077     
    169000   297.68626     -6.0200672      0              56.277384      2139.5472    
    170000   306.70831     -4.5666752      0              59.61884       2073.7756    
    171000   297.08989     -5.1977974      0              56.974851      2063.8996    
    172000   299.28073     -5.4774139      0              57.153715      2053.3486    
    173000   298.49407     -4.9379586      0              57.528544      2079.5952    
    174000   304.113       -3.4662012      0              60.176188      2035.4741    
    175000   309.70012     -5.0584425      0              59.753175      2154.8496    
    176000   304.06768     -4.156025       0              59.476879      2081.5463    
    177000   290.87536     -3.7917413      0              57.080377      2032.9469    
    178000   313.10446     -4.3644401      0              61.159612      2051.2881    
    179000   296.919       -5.0156989      0              57.121186      2044.0269    
    180000   304.8421      -4.817776       0              58.977193      2063.862     
    181000   301.05765     -4.2513289      0              58.75166       2073.9364    
    182000   296.7593      -4.4345177      0              57.668947      2144.9076    
    183000   298.69825     -2.6685315      0              59.8407        2191.7827    
    184000   294.24983     -3.9181484      0              57.660153      2176.5442    
    185000   312.507       -5.4261475      0              59.972872      2069.5856    
    186000   301.00666     -4.2089531      0              58.783366      2037.3005    
    187000   306.02019     -4.8128369      0              59.228673      2167.6876    
    188000   299.5345      -4.3996017      0              58.284635      2148.898     
    189000   293.63997     -5.3179956      0              56.132679      2109.1554    
    190000   290.81834     -5.1351921      0              55.724993      2107.5605    
    191000   291.09907     -4.7283916      0              56.190545      2082.5203    
    192000   293.64445     -4.3295394      0              57.122074      2060.2406    
    193000   304.15257     -5.8648841      0              57.785786      2142.0893    
    194000   300.45698     -5.7807499      0              57.096536      2051.8547    
    195000   301.77144     -5.8076693      0              57.344697      2029.909     
    196000   303.81602     -6.2145374      0              57.365702      2009.8245    
    197000   286.34143     -4.4705677      0              55.452727      1954.3635    
    198000   307.58702     -4.101153       0              60.268252      2138.0699    
    199000   301.97287     -3.1678521      0              60.026667      2220.2549    
    200000   294.82683     -5.33748        0              56.361572      2060.6416    
    201000   297.04129     -4.6959596      0              57.466518      2172.3853    
    202000   295.02311     -5.6062754      0              56.133853      2012.7132    
    203000   303.31009     -3.2058399      0              60.268523      2182.7738    
    204000   299.57382     -4.0331399      0              58.659325      2128.0957    
    205000   295.09427     -1.8554737      0              59.899546      2213.8187    
    206000   296.47067     -5.1222046      0              56.920857      2056.5032    
    207000   286.62643     -4.146514       0              55.836422      2031.8748    
    208000   302.29947     -3.5323391      0              59.730528      2145.6937    
    209000   303.28061     -3.6408508      0              59.827343      2121.85      
    210000   305.72238     -4.2799645      0              59.699223      2140.2858    
    211000   287.81679     -5.8187275      0              54.413318      2075.1534    
    212000   305.05873     -3.3672765      0              60.473028      2082.5797    
    213000   306.50576     -5.3722601      0              58.770866      2076.5114    
    214000   296.50352     -4.4971463      0              57.55279       2162.8862    
    215000   301.83259     -5.180069       0              57.985093      2019.1653    
    216000   295.67103     -5.4860994      0              56.38962       2084.8771    
    217000   287.65417     -4.5889329      0              55.609081      2100.8535    
    218000   292.42499     -4.1684691      0              57.027945      2211.5388    
    219000   300.17243     -4.473882       0              58.343855      2099.0246    
    220000   301.95871     -3.388191       0              59.803366      2156.9029    
    221000   300.94529     -3.215883       0              59.763593      2116.204     
    222000   306.2416      -3.9524294      0              60.135417      2202.4529    
    223000   299.2457      -4.4817456      0              58.142052      1989.3196    
    224000   291.05076     -3.6037972      0              57.305029      2049.2884    
    225000   304.64294     -4.5158353      0              59.237456      2131.3792    
    226000   309.16947     -5.4177884      0              59.282779      2085.1468    
    227000   292.34533     -5.3357645      0              55.843979      2066.9916    
    228000   313.35826     -3.8174194      0              61.759745      2051.2527    
    229000   297.00546     -3.5544481      0              58.600531      2144.9693    
    230000   299.30152     -5.0115641      0              57.623916      2115.4583    
    231000   311.52338     -4.1607627      0              61.032412      2145.2037    
    232000   310.24449     -5.0178848      0              59.907654      2182.1376    
    233000   301.40032     -3.5752043      0              59.499495      2126.1832    
    234000   286.26731     -4.6751425      0              55.23264       2075.5914    
    235000   304.94308     -6.3530976      0              57.463004      2041.6175    
    236000   308.57692     -4.4856234      0              60.09094       2154.1081    
    237000   299.71044     -4.6388895      0              58.082166      2078.1656    
    238000   299.33701     -4.3124336      0              58.330474      2078.8847    
    239000   290.46089     -4.176061       0              56.609321      2060.2184    
    240000   294.6279      -5.7470738      0              55.910348      2093.94      
    241000   296.16855     -4.8829289      0              57.096907      2089.6835    
    242000   296.21231     -4.8305145      0              57.15848       2135.1666    
    243000   307.95073     -4.5939245      0              59.851595      2099.5072    
    244000   305.73712     -4.7308479      0              59.251423      2147.3557    
    245000   300.93257     -4.2909767      0              58.685836      2176.8814    
    246000   297.10323     -5.4031018      0              56.772337      2018.2796    
    247000   300.21361     -4.4157676      0              58.410587      2109.4711    
    248000   306.57453     -4.5405231      0              59.616995      2116.0173    
    249000   303.87439     -3.8420763      0              59.750378      2014.9321    
    250000   307.83282     -4.9583809      0              59.462462      2031.8009    
    251000   293.05078     -4.730824       0              56.596551      2090.4186    
    252000   300.96488     -5.3853544      0              57.59822       2027.8907    
    253000   303.95551     -4.370704       0              59.238727      2139.4853    
    254000   301.33205     -5.0568152      0              58.003599      2020.8462    
    255000   291.34706     -4.4150029      0              56.55583       2172.8202    
    256000   282.49628     -4.6199145      0              54.498696      2043.672     
    257000   304.4288      -5.3595731      0              58.348905      2020.9402    
    258000   299.25767     -3.5444281      0              59.081876      2183.0726    
    259000   303.40047     -4.9290606      0              58.564216      2081.807     
    260000   310.6679      -4.0713966      0              60.94275       2108.309     
    261000   294.92969     -4.7040191      0              57.016559      2123.3521    
    262000   299.51127     -6.3193675      0              56.360007      2050.4651    
    263000   301.30763     -3.6954449      0              59.359858      2039.3098    
    264000   296.63602     -4.3577718      0              57.719892      2149.1859    
    265000   311.0139      -3.4793526      0              61.607202      2161.4391    
    266000   294.77302     -2.6927333      0              58.995058      2178.4871    
    267000   310.92374     -4.2571447      0              60.810543      2116.3686    
    268000   299.16712     -4.2281059      0              58.379247      2149.8983    
    269000   303.01341     -4.9787492      0              58.433526      2142.7842    
    270000   297.92018     -5.2156397      0              57.130764      2098.8443    
    271000   300.669       -4.6576573      0              58.263998      1975.628     
    272000   300.41066     -4.4830307      0              58.384561      2047.4949    
    273000   308.96997     -5.7464064      0              58.912412      2126.7714    
    274000   293.16318     -4.4267914      0              56.924105      2068.2967    
    275000   297.25964     -3.4561092      0              58.752062      2143.5676    
    276000   295.41332     -4.6296777      0              57.19211       2145.9252    
    277000   292.96802     -5.5593624      0              55.750691      2001.9373    
    278000   313.69616     -4.6474675      0              61.000411      2058.164     
    279000   306.15217     -3.9882092      0              60.080921      2157.8287    
    280000   303.73666     -4.7706472      0              58.792983      2168.3405    
    281000   299.71604     -3.6329315      0              59.089295      2184.7671    
    282000   303.45703     -4.1728705      0              59.332243      2013.0985    
    283000   305.23162     -5.4083689      0              58.468116      2041.8286    
    284000   301.77774     -3.2468869      0              59.906798      2176.2883    
    285000   282.24641     -2.7705638      0              56.295757      2136.0274    
    286000   302.02539     -2.3842503      0              60.821259      2167.0045    
    287000   316.26209     -5.5772865      0              60.607568      2007.9406    
    288000   305.45062     -4.348432       0              59.573883      2168.2779    
    289000   301.44233     -4.1598978      0              58.923594      2127.6371    
    290000   294.00185     -4.3173181      0              57.209087      2055.5983    
    291000   294.31        -5.4379052      0              56.152988      2073.3398    
    292000   305.20615     -6.0331669      0              57.837988      2007.6619    
    293000   300.97572     -4.9865465      0              57.999297      1976.6285    
    294000   305.40122     -5.8915636      0              58.020414      2055.376     
    295000   303.35916     -3.7195552      0              59.765077      2026.5047    
    296000   301.01994     -4.2091248      0              58.785974      2060.871     
    297000   298.67631     -5.0511133      0              57.453528      2130.1232    
    298000   297.81082     -4.3992614      0              57.924257      2121.355     
    299000   292.85967     -5.8361684      0              55.451213      1991.1022    
    300000   296.20355     -3.2510175      0              58.736144      2087.9236    
    301000   306.76244     -3.8071796      0              60.389664      2092.9467    
    302000   301.29456     -6.5044097      0              56.548159      2005.0008    
    303000   304.43836     -4.3451084      0              59.365369      2153.1845    
    304000   291.65913     -5.2859949      0              55.750146      2042.1344    
    305000   294.59562     -3.7073894      0              57.943278      2199.8615    
    306000   291.07927     -3.148429       0              57.766362      2055.9602    
    307000   296.15047     -4.0998319      0              57.87622       2126.5647    
    308000   304.32324     -5.1675859      0              58.5188        2149.4866    
    309000   288.70027     -4.6594601      0              55.757473      2120.6473    
    310000   302.8789      -6.3142543      0              57.069872      1954.2308    
    311000   298.13296     -4.7750334      0              57.615899      1989.7774    
    312000   286.68388     -6.4329054      0              53.562053      1924.6245    
    313000   297.17297     -6.0910632      0              56.098971      2083.7283    
    314000   296.06583     -4.9758389      0              56.9825        2081.5738    
    315000   302.67063     -4.5226162      0              58.817926      2173.7401    
    316000   298.87846     -3.1425449      0              59.4044        2059.4292    
    317000   293.98762     -6.0620866      0              55.461342      2066.4502    
    318000   292.41781     -3.3381585      0              57.856753      2060.4546    
    319000   305.71245     -5.1928996      0              58.78421       2099.6418    
    320000   299.08879     -3.4626646      0              59.128297      2154.7354    
    321000   302.35286     -5.1801722      0              58.093869      2122.0972    
    322000   292.8445      -5.3685672      0              55.915638      1965.3847    
    323000   297.89274     -4.5335112      0              57.807151      2125.8104    
    324000   293.89542     -5.3927981      0              56.111335      2079.6628    
    325000   303.38003     -4.6738222      0              58.815176      2057.3969    
    326000   298.45567     -4.6050722      0              57.853394      2171.5365    
    327000   300.76887     -3.8829123      0              59.059643      2042.0452    
    328000   291.86344     -4.9886402      0              56.090256      2040.33      
    329000   294.93144     -6.6204209      0              55.100522      2037.56      
    330000   307.29139     -5.4768602      0              58.830678      2069.3637    
    331000   293.95114     -4.600228       0              56.915565      2078.6404    
    332000   284.98184     -4.266296       0              55.372473      2080.2923    
    333000   300.12047     -4.137169       0              58.669695      2134.7441    
    334000   297.42935     -3.5673506      0              58.676336      2111.9562    
    335000   302.95741     -4.0188248      0              59.381732      2159.4101    
    336000   298.18503     -4.6903622      0              57.711468      2156.4313    
    337000   294.376       -4.5818826      0              57.022823      2001.1882    
    338000   304.47043     -3.2334231      0              60.483767      2126.919     
    339000   310.23218     -4.4582916      0              60.464672      2137.9056    
    340000   304.05675     -2.4356137      0              61.195004      2114.7017    
    341000   296.99976     -5.9158792      0              56.237907      1986.5637    
    342000   298.4602      -4.9025832      0              57.556831      2071.5138    
    343000   304.17995     -4.4592282      0              59.197172      2128.1266    
    344000   296.59813     -4.442379       0              57.627357      2046.2089    
    345000   291.27359     -3.9747946      0              56.980663      2185.9867    
    346000   308.48389     -5.5875425      0              58.969551      2059.5059    
    347000   306.85035     -4.624863       0              59.590377      2190.9574    
    348000   290.86149     -4.9119444      0              55.957273      2095.1173    
    349000   291.37696     -5.2805946      0              55.696496      2099.5066    
    350000   308.27981     -2.5705038      0              61.943883      2174.0668    
    351000   294.68334     -5.6949905      0              55.974033      2040.3543    
    352000   301.94815     -3.9095594      0              59.279787      2039.7219    
    353000   299.09582     -2.8896646      0              59.702768      2159.2501    
    354000   308.18652     -4.3156321      0              60.179231      2008.9107    
    355000   292.11598     -4.8617962      0              56.269951      2097.4319    
    356000   298.26235     -2.923187       0              59.494825      2125.693     
    357000   288.24989     -5.5887154      0              54.733966      2068.3713    
    358000   293.47781     -6.5461894      0              54.870551      1889.5137    
    359000   292.65898     -2.8637291      0              58.381653      2102.3139    
    360000   304.70103     -2.3480183      0              61.417428      2165.1925    
    361000   296.39041     -4.2520576      0              57.774209      2043.562     
    362000   298.52879     -4.3425018      0              58.131267      2139.4036    
    363000   291.73926     -5.376899       0              55.67601       2030.3178    
    364000   293.916       -5.4009442      0              56.107496      2075.0622    
    365000   293.73778     -5.5709529      0              55.900191      1989.3762    
    366000   307.05382     -4.8683782      0              59.389442      2191.7603    
    367000   293.44063     -5.2582665      0              56.150692      2024.0405    
    368000   296.18713     -5.5877287      0              56.395996      2081.5635    
    369000   304.45419     -6.2686763      0              57.445113      2047.0937    
    370000   306.334       -5.1113215      0              58.995861      2101.2826    
    371000   293.73198     -4.1434888      0              57.326441      2241.5863    
    372000   301.27758     -5.0187897      0              58.030225      2044.3595    
    373000   297.02448     -5.1230971      0              57.035862      2164.5302    
    374000   303.35221     -4.9842438      0              58.498934      2152.1012    
    375000   305.6476      -4.5760109      0              59.387527      2097.4984    
    376000   301.88774     -4.652239       0              58.524464      2086.1048    
    377000   299.29073     -5.5353748      0              57.097847      2079.4352    
    378000   297.75326     -4.2465469      0              58.064924      2144.8591    
    379000   299.14584     -6.0273391      0              56.575561      2024.4635    
    380000   285.5628      -4.8201744      0              54.940173      1937.196     
    381000   303.28973     -5.445021       0              58.02508       2052.8278    
    382000   302.72389     -4.5425317      0              58.809155      2045.5827    
    383000   291.82727     -5.2348699      0              55.836458      2144.8214    
    384000   299.2655      -4.4881904      0              58.139751      2196.4752    
    385000   301.87428     -4.5860712      0              58.587815      2046.0557    
    386000   294.0878      -5.9504872      0              55.593906      2081.2041    
    387000   304.1694      -5.9764013      0              57.67779       2008.0821    
    388000   310.73066     -4.9093849      0              60.117896      2131.0885    
    389000   305.22053     -4.6021658      0              59.271998      2120.1767    
    390000   302.78593     -3.9337754      0              59.430894      2075.1019    
    391000   302.65555     -4.8510028      0              58.486383      2069.9347    
    392000   306.7081      -5.1617452      0              59.023726      2088.9573    
    393000   298.68745     -4.3428866      0              58.164085      2114.6341    
    394000   318.41615     -5.1951197      0              61.44052       2060.0478    
    395000   308.49559     -5.709975       0              58.849568      2117.8804    
    396000   299.64127     -5.8477573      0              56.858823      1926.6459    
    397000   290.46562     -4.9771358      0              55.809237      2033.5921    
    398000   298.93522     -6.5811069      0              55.977718      2032.2726    
    399000   300.41897     -5.3294363      0              57.539895      2051.097     
    400000   303.98815     -4.2973267      0              59.318935      2071.8691    
    401000   297.44372     -3.811711       0              58.434984      2114.8585    
    402000   304.58267     -5.8243817      0              57.916296      2111.0963    
    403000   305.28193     -4.4181844      0              59.468829      2137.7128    
    404000   289.60133     -3.9773557      0              56.628144      2061.2758    
    405000   307.86843     -4.5236308      0              59.904664      2131.7357    
    406000   313.93538     -5.47681        0              60.221129      2032.6378    
    407000   296.06213     -3.4883222      0              58.469244      2192.0938    
    408000   305.91376     -6.3964734      0              57.622764      2032.9295    
    409000   309.7298      -6.2786535      0              58.539175      2034.3612    
    410000   280.72637     -3.5753411      0              55.172876      2100.6873    
    411000   295.37204     -4.1943561      0              57.618794      2036.644     
    412000   306.27253     -5.0822601      0              59.012058      2067.7643    
    413000   297.16685     -6.2569769      0              55.931775      2018.8508    
    414000   296.41569     -5.4563729      0              56.575184      2076.5538    
    415000   290.24409     -3.9613335      0              56.778678      2048.7188    
    416000   299.12989     -4.4940719      0              58.10549       2198.2971    
    417000   300.00282     -5.5928676      0              57.189376      2073.8167    
    418000   299.58451     -4.8802759      0              57.814427      2117.2131    
    419000   306.00969     -4.7368042      0              59.302508      1978.3265    
    420000   297.60649     -3.7756768      0              58.50508       2112.6808    
    421000   305.39739     -3.7483824      0              60.162794      2118.5015    
    422000   290.99997     -4.5034544      0              56.394743      2161.6951    
    423000   297.42267     -3.7721879      0              58.4701        2092.7589    
    424000   304.71245     -2.9187772      0              60.849059      2078.4972    
    425000   288.6138      -6.0490826      0              54.349754      1980.8253    
    426000   295.46732     -4.9704709      0              56.862619      2040.3282    
    427000   300.88421     -3.8827665      0              59.083927      2169.486     
    428000   304.71591     -3.6832384      0              60.085324      2147.3631    
    429000   294.01546     -2.5508062      0              58.978449      2205.2421    
    430000   287.17389     -5.9525149      0              54.144989      2045.7548    
    431000   287.67223     -2.8712559      0              57.330538      2107.4391    
    432000   302.5577      -4.1239627      0              59.192946      2106.8622    
    433000   308.53866     -4.4427784      0              60.125777      2114.8229    
    434000   294.30767     -2.3917016      0              59.198704      2140.5057    
    435000   297.13484     -3.2460674      0              58.935987      2109.9963    
    436000   304.61467     -5.024466       0              58.722907      2184.7035    
    437000   306.11902     -4.4859824      0              59.57621       2188.3961    
    438000   300.71898     -5.3373209      0              57.594793      2075.9655    
    439000   307.54383     -4.9317363      0              59.428629      2116.1859    
    440000   296.96129     -5.0958193      0              57.049917      1999.1919    
    441000   293.0488      -4.6305404      0              56.696419      2082.4852    
    442000   289.37695     -4.8442085      0              55.714336      2092.0038    
    443000   299.3167      -5.923535       0              56.715122      1981.7961    
    444000   296.21332     -4.2775477      0              57.711658      2115.4826    
    445000   301.45925     -6.4059809      0              56.681052      2153.3952    
    446000   294.20776     -6.426065       0              55.143433      2053.1536    
    447000   297.79848     -3.6989884      0              58.621946      1992.0611    
    448000   297.87165     -5.9609691      0              56.375278      2073.8816    
    449000   298.59648     -3.6081795      0              58.879756      2074.989     
    450000   295.23376     -3.2413752      0              58.542837      2099.314     
    451000   305.41379     -5.008959       0              58.905648      2118.2698    
    452000   304.20043     -3.5653211      0              60.095364      2000.4198    
    453000   305.47787     -3.9192161      0              60.008803      2219.9433    
    454000   297.79635     -4.5311682      0              57.789321      2158.0309    
    455000   309.82707     -3.0243011      0              61.813883      2061.0676    
    456000   290.42852     -4.3765064      0              56.402102      2023.5124    
    457000   314.50231     -5.4944318      0              60.322151      2091.5844    
    458000   296.60043     -4.4307285      0              57.639488      2080.2736    
    459000   295.42425     -4.581786       0              57.24229       2064.1228    
    460000   289.54561     -2.6772949      0              57.916544      2171.2595    
    461000   303.73209     -4.5078248      0              59.054849      2123.431     
    462000   301.90179     -5.0595231      0              58.120121      2070.1766    
    463000   297.31514     -4.9055925      0              57.314193      1992.7594    
    464000   299.24406     -3.8630227      0              58.760432      2141.3742    
    465000   298.97839     -4.8885071      0              57.679351      2106.6842    
    466000   304.89846     -4.9334635      0              58.873301      2161.9962    
    467000   301.01989     -5.0215222      0              57.973564      2097.3179    
    468000   307.12485     -3.6501722      0              60.622512      2188.2946    
    469000   304.74839     -3.793042       0              59.982317      2051.9095    
    470000   299.14669     -4.1534857      0              58.449592      2067.0411    
    471000   308.68837     -4.6470901      0              59.952796      2039.6757    
    472000   305.09133     -4.109777       0              59.737349      2214.6727    
    473000   288.19744     -2.8182025      0              57.493502      2089.3837    
    474000   306.50837     -3.0241191      0              61.119555      2208.5217    
    475000   297.88979     -4.2415813      0              58.098464      2020.1489    
    476000   291.85228     -4.7508527      0              56.325708      2093.442     
    477000   294.626       -5.2949168      0              56.362108      2122.9408    
    478000   308.48469     -5.0995877      0              59.457673      2093.4939    
    479000   307.73692     -3.1536063      0              61.247169      2181.7052    
    480000   305.97874     -5.6989626      0              58.333874      2064.2024    
    481000   307.32892     -6.5958208      0              57.71957       2028.1578    
    482000   299.85578     -4.0765553      0              58.674916      2057.9616    
    483000   301.62024     -5.1712859      0              57.949438      2061.2473    
    484000   301.05831     -5.3695411      0              57.633587      2099.562     
    485000   299.29482     -3.6186021      0              59.015477      2073.1763    
    486000   308.02934     -5.3901269      0              59.071843      2047.1736    
    487000   294.88367     -5.3108581      0              56.40009       2061.7393    
    488000   301.38493     -5.1456538      0              57.925825      2153.7164    
    489000   289.67093     -3.8645799      0              56.755485      1946.8822    
    490000   293.16407     -3.4053902      0              57.945692      2156.1569    
    491000   292.66297     -3.1631055      0              58.08311       2160.4397    
    492000   304.54889     -3.5014635      0              60.232145      2105.9142    
    493000   294.93728     -4.6717507      0              57.050415      2039.3635    
    494000   301.17161     -5.4350925      0              57.591744      2081.72      
    495000   306.1362      -3.4052109      0              60.660578      2084.9441    
    496000   296.37128     -4.2680228      0              57.75424       2049.365     
    497000   297.7201      -3.435357       0              58.869176      2026.7397    
    498000   302.10326     -5.2601185      0              57.961688      2031.5731    
    499000   293.39337     -5.5064581      0              55.892611      2016.614     
    500000   293.15096     -4.9649263      0              56.383412      2111.3863    
    501000   299.52792     -3.9230866      0              58.759772      2076.6955    
    502000   292.9914      -5.6408423      0              55.674106      2075.4306    
    503000   302.92826     -4.5509834      0              58.843472      2073.8108    
    504000   309.65547     -3.83364        0              60.968634      2076.6422    
    505000   292.18105     -4.8265403      0              56.318824      1960.0546    
    506000   305.21559     -2.6581397      0              61.214991      2224.931     
    507000   297.75622     -3.6058846      0              58.706207      2163.7777    
    508000   301.77252     -3.5171819      0              59.635409      2116.2829    
    509000   306.1582      -5.0879979      0              58.982395      2048.7163    
    510000   306.20893     -3.534335       0              60.546674      2077.0392    
    511000   294.44702     -4.6664327      0              56.953136      2166.7018    
    512000   299.79396     -5.4081929      0              57.330341      2146.9779    
    513000   290.7622      -4.398369       0              56.450068      2103.9537    
    514000   305.1892      -4.6482743      0              59.219333      2089.4864    
    515000   292.18239     -3.8541294      0              57.291515      2104.8269    
    516000   296.70939     -4.6087474      0              57.484271      2129.8389    
    517000   310.61342     -2.5847026      0              62.418043      2243.5259    
    518000   298.44801     -5.2578723      0              57.198991      1984.267     
    519000   296.03071     -4.4969662      0              57.454024      2053.9275    
    520000   297.95886     -4.4018381      0              57.95266       2109.3208    
    521000   297.63876     -2.8018372      0              59.485673      2230.3297    
    522000   293.04724     -4.0856767      0              57.240956      2114.0558    
    523000   298.71678     -3.7951809      0              58.717929      2156.0276    
    524000   303.72311     -4.8233579      0              58.737438      2155.9229    
    525000   294.44836     -5.3415545      0              56.278294      2098.6606    
    526000   297.14065     -5.6152892      0              56.56798       2072.3715    
    527000   296.11516     -6.0997064      0              55.868958      2105.187     
    528000   297.43266     -5.1685902      0              57.07579       2154.7496    
    529000   314.33647     -4.1378118      0              61.644065      2174.2773    
    530000   295.94366     -4.1970667      0              57.735706      2161.8283    
    531000   303.76756     -5.7107224      0              57.859376      2016.3882    
    532000   301.59678     -3.5924167      0              59.523398      2091.9756    
    533000   299.02699     -3.8909139      0              58.687114      2169.3074    
    534000   303.30151     -3.0181795      0              60.454388      2129.0157    
    535000   299.31303     -3.5429468      0              59.094943      2223.8464    
    536000   305.17949     -4.1975763      0              59.668         2236.9645    
    537000   298.82954     -3.1060267      0              59.43068       2201.5627    
    538000   311.29455     -4.6286982      0              60.51659       2091.1673    
    539000   292.92785     -3.4666527      0              57.834994      2107.4122    
    540000   297.67334     -4.9666105      0              57.328136      2060.155     
    541000   305.26647     -2.8010072      0              61.082772      2189.2777    
    542000   302.13349     -3.8763849      0              59.351747      2100.3075    
    543000   292.70563     -5.2234727      0              56.03167       2035.3519    
    544000   292.7248      -4.5285141      0              56.730641      2115.9782    
    545000   298.44781     -3.925342       0              58.531479      2091.2926    
    546000   300.14113     -4.3083887      0              58.502798      2109.4789    
    547000   300.3145      -4.2488267      0              58.598642      2115.1713    
    548000   292.19449     -3.600143       0              57.548033      2051.434     
    549000   295.02646     -4.7413317      0              56.999498      2085.4994    
    550000   300.29651     -4.1289436      0              58.71476       2087.4597    
    551000   298.90231     -3.4348639      0              59.117072      2128.733     
    552000   303.53427     -2.5800477      0              60.94123       2182.5101    
    553000   294.05762     -6.6039273      0              54.93415       1916.1588    
    554000   290.88124     -5.7269436      0              55.146406      1994.8804    
    555000   295.52053     -3.7288991      0              58.115325      2185.6897    
    556000   309.00266     -4.7819682      0              59.883691      2056.2269    
    557000   289.9581      -4.7902424      0              55.889919      2142.3396    
    558000   312.03846     -4.6532698      0              60.647697      2095.3782    
    559000   298.00331     -3.076098       0              59.287703      2198.1283    
    560000   301.05375     -3.5710189      0              59.431153      2064.0328    
    561000   293.99427     -3.5887801      0              57.93604       2170.1865    
    562000   296.04121     -4.2898049      0              57.663382      2070.3685    
    563000   298.55142     -4.1419396      0              58.336566      2084.4151    
    564000   307.08371     -4.3991045      0              59.864972      2047.4001    
    565000   286.93879     -5.5979649      0              54.450339      2120.3141    
    566000   305.4673      -3.9824696      0              59.943336      2126.916     
    567000   302.23826     -3.7623835      0              59.487675      2136.4436    
    568000   295.39932     -4.1785485      0              57.640309      2076.7941    
    569000   302.74505     -4.8071976      0              58.548918      2020.8899    
    570000   309.09046     -4.2686572      0              60.415376      2016.6772    
    571000   302.0069      -5.5307695      0              57.670871      2093.1512    
    572000   311.42402     -4.4212326      0              60.751148      2196.8       
    573000   304.1481      -4.4808566      0              59.168878      2050.98      
    574000   316.0791      -5.3767994      0              60.769761      2074.2897    
    575000   298.61298     -4.7718465      0              57.719541      2058.8795    
    576000   304.83311     -3.8923024      0              59.900785      2061.6812    
    577000   297.66822     -6.3376036      0              55.956073      2053.8671    
    578000   296.50197     -4.1080125      0              57.941599      2105.4555    
    579000   299.36166     -5.6080509      0              57.040014      2013.4519    
    580000   311.0608      -5.6696741      0              59.426696      2084.4105    
    581000   300.47303     -4.8907264      0              57.989919      2001.6832    
    582000   295.20279     -4.5745685      0              57.203162      2142.4161    
    583000   299.92497     -3.957677       0              58.808274      2127.1768    
    584000   301.66826     -4.8159597      0              58.314813      2120.6804    
    585000   294.27796     -4.9541085      0              56.630081      2090.4471    
    586000   303.44227     -4.7607171      0              58.741307      2077.2125    
    587000   295.68695     -3.2644644      0              58.614587      2238.8143    
    588000   298.57481     -4.0396696      0              58.443731      2139.8482    
    589000   299.16261     -3.2687612      0              59.337648      2066.5317    
    590000   308.0396      -4.2203562      0              60.243761      2071.0104    
    591000   295.71019     -6.0489677      0              55.834947      2039.2047    
    592000   298.58881     -5.6780902      0              56.80824       2002.8724    
    593000   295.0099      -3.4248992      0              58.312463      2081.1028    
    594000   295.04656     -5.1258149      0              56.619219      2063.4374    
    595000   298.67335     -5.4853329      0              57.018688      1977.3832    
    596000   298.81122     -4.8021223      0              57.730751      2054.9129    
    597000   305.31785     -4.0355497      0              59.85898       2159.1056    
    598000   303.86345     -5.7520312      0              57.838133      2058.8858    
    599000   304.54926     -4.2389272      0              59.494759      2105.4607    
    600000   307.77762     -4.4699575      0              59.939335      2092.6428    
    601000   304.31433     -4.6391062      0              59.045415      2104.6351    
    602000   297.76965     -5.8017514      0              56.513151      2139.3203    
    603000   301.19366     -4.7390281      0              58.292423      2119.4629    
    604000   307.78206     -3.0268395      0              61.383381      2090.1187    
    605000   307.37652     -2.4867301      0              61.838622      2133.6115    
    606000   309.32282     -4.8041461      0              59.928514      2120.4092    
    607000   301.07569     -4.8658265      0              58.140937      2087.0749    
    608000   307.67534     -6.1479348      0              58.239953      1991.0523    
    609000   292.9095      -4.4689262      0              56.828882      2090.7326    
    610000   290.03601     -5.4398915      0              55.256576      2137.7108    
    611000   301.71117     -4.7427         0              58.397053      2118.2688    
    612000   297.14816     -4.2527331      0              57.932108      2114.7631    
    613000   305.74685     -4.5846455      0              59.399662      2169.0127    
    614000   306.6196      -5.0857746      0              59.081176      2155.9913    
    615000   305.23531     -3.8412154      0              60.036041      2261.9275    
    616000   290.48314     -4.4421527      0              56.347885      2069.2192    
    617000   297.88911     -5.3628238      0              56.977077      2031.9597    
    618000   295.05165     -4.7910288      0              56.955072      2032.2843    
    619000   298.54438     -4.5112073      0              57.965825      2043.6755    
    620000   302.0605      -6.1969772      0              57.015881      2035.2279    
    621000   299.61736     -4.1552487      0              58.546328      2095.0392    
    622000   302.37135     -4.4838729      0              58.794038      2029.3543    
    623000   304.29964     -4.3819603      0              59.299487      2075.6786    
    624000   304.99095     -3.8204212      0              60.005698      2051.6568    
    625000   294.80925     -4.8633439      0              56.832028      2036.717     
    626000   306.13676     -2.794542       0              61.271364      2119.7869    
    627000   287.65076     -4.5999686      0              55.597332      2147.393     
    628000   297.56216     -4.5158344      0              57.755647      2074.9983    
    629000   300.49087     -2.7496965      0              60.134682      2164.914     
    630000   297.41654     -5.4058302      0              56.835176      2126.7122    
    631000   299.97736     -5.6339359      0              57.142978      2045.7961    
    632000   296.18765     -4.0942241      0              57.889609      2091.0425    
    633000   294.04094     -6.2008173      0              55.33377       1972.0637    
    634000   298.95888     -6.4162236      0              56.147552      2063.2601    
    635000   301.4823      -4.0021818      0              59.089674      1991.7419    
    636000   309.92495     -5.5430408      0              59.315627      2086.0133    
    637000   291.61974     -3.6946511      0              57.333245      2118.6445    
    638000   304.92487     -2.683627       0              61.128664      2128.7968    
    639000   301.67495     -3.0750133      0              60.057159      2268.5015    
    640000   297.5702      -4.358849       0              57.914315      2069.7114    
    641000   300.50385     -5.8780974      0              57.008996      2044.9769    
    642000   295.05037     -5.3827172      0              56.363116      2136.385     
    643000   293.20742     -4.1561623      0              57.203993      2176.5452    
    644000   306.7829      -5.2235959      0              58.977529      2106.2848    
    645000   293.01192     -3.1251492      0              58.194093      2046.1584    
    646000   296.11187     -5.7387946      0              56.229181      2079.15      
    647000   310.94884     -5.2241691      0              59.848771      2189.3611    
    648000   298.6895      -4.2907976      0              58.216603      2214.8168    
    649000   296.99859     -5.5790645      0              56.574476      2070.9722    
    650000   314.93913     -5.3057124      0              60.602284      2066.8064    
    651000   304.36638     -3.5648161      0              60.130598      2116.9153    
    652000   289.65727     -5.9107801      0              54.706426      2079.6462    
    653000   289.60607     -5.2974588      0              55.309033      2079.3266    
    654000   292.531       -5.1356377      0              56.08296       2047.7119    
    655000   316.33096     -4.0724446      0              62.126824      2040.1331    
    656000   304.08234     -5.3178915      0              58.318082      1992.2932    
    657000   301.25384     -3.7658989      0              59.278148      2135.477     
    658000   302.10637     -4.8024449      0              58.420013      2070.5739    
    659000   300.42178     -3.1535495      0              59.71637       2161.1508    
    660000   298.87453     -5.5154702      0              57.030652      1977.4314    
    661000   301.22622     -6.0635874      0              56.974679      2039.9829    
    662000   299.45248     -6.0669121      0              56.60016       2063.5849    
    663000   307.45558     -3.0184438      0              61.323455      2246.6563    
    664000   303.37719     -5.9482936      0              57.540111      2045.333     
    665000   289.93718     -3.6583727      0              57.017412      2067.1259    
    666000   298.33879     -5.3890222      0              57.044985      2132.1838    
    667000   313.03671     -5.6696882      0              59.840185      2012.9121    
    668000   294.80182     -4.5875943      0              57.106223      2050.2668    
    669000   291.45653     -4.3374483      0              56.656293      2070.9746    
    670000   306.25274     -5.4314498      0              58.658726      2097.9373    
    671000   298.3782      -5.0707228      0              57.371532      2124.4561    
    672000   301.2396      -7.2269118      0              55.814153      1944.2584    
    673000   292.79865     -5.6286563      0              55.645955      2094.7214    
    674000   293.83994     -5.636787       0              55.855737      2106.2231    
    675000   302.61067     -5.5393216      0              57.788671      2044.9984    
    676000   299.09105     -4.7995153      0              57.791919      2095.6659    
    677000   291.54542     -4.815242       0              56.197102      2079.8376    
    678000   300.85118     -3.8665244      0              59.093257      2154.8205    
    679000   297.83462     -5.4612151      0              56.867283      2057.8698    
    680000   287.71039     -4.0830381      0              56.12674       2064.9914    
    681000   290.84674     -4.0645691      0              56.801561      2075.2743    
    682000   300.14981     -4.3024432      0              58.510559      2093.8058    
    683000   301.22212     -5.1292923      0              57.908115      2203.1179    
    684000   302.46946     -3.8953284      0              59.403112      2141.4322    
    685000   304.38459     -4.447122       0              59.252103      2137.9768    
    686000   306.0787      -6.0542978      0              57.999457      2048.0833    
    687000   305.01629     -4.4695238      0              59.361898      2123.3635    
    688000   308.66958     -5.9542797      0              58.641675      2133.2235    
    689000   298.38764     -3.5391696      0              58.90506       2171.5727    
    690000   300.07994     -2.8806609      0              59.917721      2113.6691    
    691000   301.6379      -3.8328294      0              59.29159       2061.7927    
    692000   304.81601     -4.6352069      0              59.154303      2145.465     
    693000   305.8268      -4.1824295      0              59.818609      2135.2373    
    694000   302.60532     -6.4281943      0              56.898678      1967.6811    
    695000   294.27762     -4.4804697      0              57.103649      2019.819     
    696000   292.02702     -2.9977336      0              58.115395      2196.4242    
    697000   290.29757     -3.5019222      0              57.249282      2098.138     
    698000   297.54603     -4.2831787      0              57.984926      2119.1313    
    699000   295.11792     -5.3112285      0              56.448741      1963.0202    
    700000   290.98414     -4.4054445      0              56.48944       2066.0181    
    701000   304.7832      -5.5203358      0              58.262308      2008.043     
    702000   296.43327     -3.440907       0              58.594328      2175.324     
    703000   294.05461     -5.3287437      0              56.208705      2108.8346    
    704000   296.07239     -4.8188208      0              57.140892      2229.9863    
    705000   309.26807     -4.5103272      0              60.210874      2171.7933    
    706000   297.01707     -4.5947825      0              57.562626      2007.1676    
    707000   297.97425     -4.4724806      0              57.885238      2175.7304    
    708000   300.54069     -4.4924548      0              58.40235       2022.1689    
    709000   295.98735     -3.9563821      0              57.985533      2197.3481    
    710000   294.39095     -3.3252755      0              58.282558      2235.2906    
    711000   295.14456     -2.2658043      0              59.499739      2146.542     
    712000   300.63416     -5.4875818      0              57.426782      2041.2414    
    713000   291.54917     -5.571474       0              55.441655      2055.8809    
    714000   311.54933     -5.6377903      0              59.560815      2127.7931    
    715000   290.64056     -3.4721255      0              57.350857      2160.3268    
    716000   296.84165     -3.9763867      0              58.144311      2065.8682    
    717000   306.68226     -5.7332674      0              58.446796      2066.7029    
    718000   300.37847     -4.0870762      0              58.77378       2096.344     
    719000   307.61585     -5.8282003      0              58.547238      2065.6559    
    720000   308.34951     -4.0618323      0              60.46714       2098.4857    
    721000   303.2723      -5.0958512      0              58.370603      2062.9184    
    722000   293.4338      -4.4140413      0              56.993488      2042.9219    
    723000   305.38922     -6.389172       0              57.520294      2080.7783    
    724000   296.0814      -4.003657       0              57.957941      2119.2268    
    725000   312.36129     -4.1745903      0              61.193935      2224.264     
    726000   290.53956     -5.1922006      0              55.609645      2001.2978    
    727000   293.62427     -4.285557       0              57.161833      2087.8287    
    728000   302.86029     -3.627236       0              59.752995      2173.3884    
    729000   304.74311     -4.6902252      0              59.084028      2156.6821    
    730000   298.27593     -4.1246442      0              58.296209      2094.8323    
    731000   303.19399     -5.1229006      0              58.327165      2121.4973    
    732000   293.62499     -5.5460177      0              55.901523      2071.7344    
    733000   295.97815     -3.2199744      0              58.720016      2107.3913    
    734000   311.51423     -4.514659       0              60.676602      2118.723     
    735000   312.56925     -4.4470005      0              60.965045      2180.8909    
    736000   294.36079     -3.5991599      0              58.002363      2122.485     
    737000   292.42274     -4.9271241      0              56.268819      2087.2556    
    738000   304.112       -3.6784604      0              59.963719      2193.6144    
    739000   290.26232     -5.937317       0              54.80651       1979.8149    
    740000   300.65764     -5.0932293      0              57.826049      2134.0039    
    741000   302.52072     -4.1640002      0              59.145169      2137.8493    
    742000   281.36097     -3.639296       0              55.241727      2077.2178    
    743000   297.06039     -3.4433887      0              58.723084      2129.7993    
    744000   294.81536     -6.3978043      0              55.298847      2081.3264    
    745000   292.31372     -4.0106267      0              57.162501      2197.7438    
    746000   296.08735     -4.3484719      0              57.614371      2050.9675    
    747000   305.45484     -3.0728246      0              60.850373      2048.3595    
    748000   296.18949     -5.6778459      0              56.306372      2008.8334    
    749000   295.0156      -4.7855314      0              56.953025      2069.9768    
    750000   306.7057      -3.0953996      0              61.089569      2132.8346    
    751000   313.20318     -5.5539261      0              59.990784      2123.6012    
    752000   298.12002     -3.9027445      0              58.485481      2083.4       
    753000   297.52174     -4.5165775      0              57.746444      2120.8854    
    754000   309.67303     -5.7594287      0              59.04652       2071.0202    
    755000   292.01107     -4.9017002      0              56.208092      2089.1621    
    756000   301.36492     -3.1429583      0              59.924334      2133.7728    
    757000   296.66005     -5.7072086      0              56.375486      2036.4949    
    758000   303.63278     -3.8381079      0              59.703784      2153.2472    
    759000   295.65113     -3.0389217      0              58.832634      2097.3731    
    760000   295.80484     -4.226339       0              57.677383      2114.3361    
    761000   289.75663     -5.5071475      0              55.130853      2027.0637    
    762000   299.16228     -4.9501193      0              57.656221      2060.899     
    763000   298.70689     -4.2774129      0              58.233628      2009.4544    
    764000   302.74351     -5.3119662      0              58.043827      2108.1293    
    765000   292.43472     -4.8834006      0              56.315049      2106.0217    
    766000   289.16078     -5.4143759      0              55.098929      2091.55      
    767000   299.94442     -4.3156601      0              58.454361      2137.5907    
    768000   298.95164     -4.1808031      0              58.381457      2116.5068    
    769000   293.16757     -3.3141635      0              58.037651      2097.2486    
    770000   296.6977      -4.4252751      0              57.665298      2200.5312    
    771000   298.12533     -4.4403041      0              57.949032      2022.8723    
    772000   298.95991     -5.4951239      0              57.068867      2101.7736    
    773000   296.55012     -5.6925685      0              56.367121      2050.228     
    774000   314.47451     -5.0464204      0              60.764344      2049.9436    
    775000   303.52156     -3.6814997      0              59.837117      2112.6982    
    776000   299.84131     -3.6446224      0              59.103822      2176.8838    
    777000   296.01779     -6.5227629      0              55.425523      2046.5882    
    778000   299.58243     -5.7892272      0              56.90504       2043.6349    
    779000   309.66752     -6.2312335      0              58.573561      1975.0118    
    780000   292.12094     -4.8856353      0              56.247149      2021.5587    
    781000   308.84119     -6.4633668      0              58.1685        2095.0583    
    782000   296.75389     -4.7378562      0              57.364477      2026.0019    
    783000   298.1492      -4.2223923      0              58.171938      2127.1768    
    784000   297.1843      -4.3896781      0              57.802727      2099.8969    
    785000   290.79945     -4.3587705      0              56.497464      2029.3314    
    786000   307.21914     -4.9801025      0              59.312315      2104.5003    
    787000   284.50283     -5.0227984      0              54.515728      2054.8158    
    788000   288.65157     -4.1300048      0              56.276738      2077.3167    
    789000   302.02754     -4.7624601      0              58.4435        2057.0715    
    790000   296.7626      -4.4009512      0              57.703204      2089.3718    
    791000   309.94613     -3.9992461      0              60.863855      2079.5145    
    792000   306.10352     -5.0849426      0              58.974007      2104.0696    
    793000   299.56887     -5.9925196      0              56.69891       2087.7179    
    794000   305.60603     -6.6433786      0              57.311461      2027.8066    
    795000   304.05066     -4.48031        0              59.149034      2097.8593    
    796000   294.61992     -3.4366455      0              58.219106      2176.9775    
    797000   289.37216     -2.6987195      0              57.858821      2171.0701    
    798000   303.7552      -3.8677126      0              59.699799      2145.0175    
    799000   294.17767     -5.9221387      0              55.641061      2001.8288    
    800000   309.25567     -4.7664118      0              59.952194      2105.0739    
    801000   307.61898     -5.3484914      0              59.027601      2039.6401    
    802000   303.63375     -6.395009       0              57.147086      2060.7796    
    803000   300.00394     -3.0919094      0              59.690567      2248.3025    
    804000   307.4402      -4.2560958      0              60.082584      2137.3938    
    805000   303.63482     -4.4247258      0              59.117593      1956.1455    
    806000   304.22656     -6.7949323      0              56.871221      1934.0727    
    807000   300.56006     -4.5865507      0              58.312306      2145.7825    
    808000   292.67148     -3.5124519      0              57.735546      2114.4879    
    809000   292.33272     -4.7683006      0              56.408805      1993.2602    
    810000   300.069       -4.4636646      0              58.332427      2195.5988    
    811000   294.88462     -5.262911       0              56.448235      2084.2984    
    812000   290.35042     -4.3822608      0              56.380004      2011.8352    
    813000   299.173       -5.2744322      0              57.334152      1986.6045    
    814000   304.5453      -4.4784829      0              59.254374      2134.2653    
    815000   295.2654      -4.1989247      0              57.591908      2171.3663    
    816000   299.56213     -4.7565162      0              57.933502      2101.5411    
    817000   294.4571      -4.4077265      0              57.213952      2039.4173    
    818000   300.71608     -6.4406538      0              56.490855      1954.8046    
    819000   298.04369     -5.5875283      0              56.784724      2180.9103    
    820000   289.69594     -3.1475472      0              57.477752      2039.0519    
    821000   301.00718     -4.0779423      0              58.914485      2150.4352    
    822000   307.58551     -6.1365479      0              58.23254       2127.1255    
    823000   297.48749     -4.5246581      0              57.731196      2191.8219    
    824000   301.00377     -5.1512481      0              57.840465      2102.5274    
    825000   294.89107     -4.68473        0              57.027766      2100.5226    
    826000   305.43177     -4.2360328      0              59.682337      2037.6609    
    827000   304.48949     -3.142993       0              60.578184      2084.6893    
    828000   305.71458     -4.3942036      0              59.583351      2069.0011    
    829000   301.54656     -4.3663248      0              58.738979      2091.5044    
    830000   306.93964     -4.1283365      0              60.10559       2163.6231    
    831000   293.55451     -5.6778171      0              55.754974      2074.804     
    832000   302.98931     -4.9895578      0              58.417675      2173.1978    
    833000   303.37323     -4.5322774      0              58.955298      2077.0352    
    834000   296.39503     -3.6207955      0              58.406438      2123.3179    
    835000   297.40691     -2.9512571      0              59.287734      2242.3949    
    836000   291.46917     -4.3911736      0              56.605213      2175.4983    
    837000   296.56964     -5.8379946      0              56.22578       2025.6095    
    838000   296.82681     -2.9987128      0              59.118878      2126.1882    
    839000   297.38438     -4.2012404      0              58.033035      2141.964     
    840000   297.5765      -4.2936061      0              57.980874      2116.2836    
    841000   299.87483     -5.3543108      0              57.401148      2027.2121    
    842000   303.49924     -5.0734595      0              58.440486      2110.0308    
    843000   293.82442     -5.1327419      0              56.356534      1932.8052    
    844000   294.982       -3.7622245      0              57.9693        2140.9901    
    845000   301.87874     -4.2423693      0              58.932451      2084.2001    
    846000   297.40982     -5.2896311      0              56.94997       2016.1085    
    847000   296.08198     -5.1857119      0              56.776008      2104.4       
    848000   306.62585     -4.6952671      0              59.472991      2063.1387    
    849000   298.64611     -4.5626283      0              57.935693      2180.4604    
    850000   300.16176     -4.9402666      0              57.875238      2012.769     
    851000   300.9547      -3.9603093      0              59.021135      2096.9857    
    852000   292.96552     -4.2815492      0              57.027982      2013.9119    
    853000   301.84258     -4.4670751      0              58.700178      2134.9127    
    854000   289.86526     -3.607365       0              57.053368      2148.8761    
    855000   305.65358     -4.2185667      0              59.746222      2107.7928    
    856000   303.24779     -4.2541231      0              59.207201      2143.8006    
    857000   292.53213     -6.3821651      0              54.836671      1989.7035    
    858000   308.76842     -4.4300093      0              60.186629      2225.7892    
    859000   302.36416     -4.6073771      0              58.669029      2108.176     
    860000   301.03052     -7.3845252      0              55.612786      1908.9674    
    861000   305.65133     -3.9656186      0              59.998699      2169.652     
    862000   306.69544     -4.8219495      0              59.360873      2042.6485    
    863000   304.34277     -6.7910906      0              56.899384      1877.8042    
    864000   294.5787      -4.682216       0              56.964909      2136.0684    
    865000   306.08338     -2.5433057      0              61.51143       2156.2151    
    866000   301.35522     -3.7880301      0              59.277232      2126.7994    
    867000   290.08657     -3.5338205      0              57.173226      2179.8563    
    868000   299.15016     -3.6290885      0              58.974716      2070.551     
    869000   302.19996     -3.8451893      0              59.396854      2085.7155    
    870000   298.05059     -3.6817482      0              58.691947      2087.9334    
    871000   305.66322     -4.06241        0              59.904396      2102.3454    
    872000   290.37492     -4.9431858      0              55.824206      2051.7803    
    873000   291.37305     -5.5070856      0              55.469187      2085.027     
    874000   301.86702     -3.5736782      0              59.598691      2170.9387    
    875000   297.80731     -3.7489019      0              58.573881      2119.9959    
    876000   296.63259     -5.7139056      0              56.363042      2047.9888    
    877000   303.51452     -3.3317709      0              60.185372      2266.0475    
    878000   303.95189     -4.1755248      0              59.433149      2120.7236    
    879000   307.65174     -4.7360008      0              59.646948      2136.4322    
    880000   308.61101     -3.3899944      0              61.193703      2098.1352    
    881000   295.58318     -3.9510585      0              57.906276      2149.7842    
    882000   294.82138     -4.4543777      0              57.243535      2019.5925    
    883000   313.34878     -3.971465       0              61.603716      2190.391     
    884000   289.11287     -5.0257515      0              55.477527      2006.8167    
    885000   309.92626     -4.5116092      0              60.347334      2068.8373    
    886000   315.91423     -6.1528946      0              59.959162      2056.2343    
    887000   301.3307      -4.9382913      0              58.12184       2118.4658    
    888000   288.96031     -4.1069744      0              56.364378      2029.951     
    889000   301.14727     -4.0968752      0              58.924869      2170.849     
    890000   306.9979      -1.8636572      0              62.382461      2170.6638    
    891000   312.31254     -3.3821426      0              61.976182      2115.271     
    892000   308.26639     -5.951684       0              58.559894      2044.845     
    893000   304.43023     -5.1695859      0              58.539191      2058.0784    
    894000   310.40051     -4.3813285      0              60.576862      2238.9591    
    895000   296.66816     -4.3547321      0              57.729659      2068.0561    
    896000   311.53164     -5.6249128      0              59.569992      2098.4342    
    897000   298.9478      -3.9683428      0              58.593113      2050.36      
    898000   308.41055     -5.6402991      0              58.901447      2072.8998    
    899000   295.50069     -4.1632246      0              57.676847      2166.3681    
    900000   299.2686      -5.6737542      0              56.954837      2077.2287    
    901000   295.04103     -2.8042736      0              58.939604      2151.2453    
    902000   303.18928     -2.8251789      0              60.6239        2237.7029    
    903000   306.71115     -5.309219       0              58.87689       2111.9927    
    904000   301.57156     -4.2384694      0              58.872066      2156.6938    
    905000   304.84807     -5.1704805      0              58.625738      2027.3394    
    906000   293.51831     -4.2968187      0              57.128395      2008.8157    
    907000   290.70433     -4.3448012      0              56.491526      2138.6504    
    908000   301.03036     -3.6878251      0              59.309454      2120.2201    
    909000   303.48603     -4.2332411      0              59.277939      2127.5984    
    910000   302.90114     -4.4438701      0              58.944909      2072.2445    
    911000   293.43489     -5.6511805      0              55.756576      2011.3497    
    912000   293.90887     -4.4287086      0              57.07824       2076.4156    
    913000   300.17412     -5.3971179      0              57.420972      2115.3256    
    914000   300.6154      -4.0359097      0              58.874528      2081.4444    
    915000   306.66189     -6.0578167      0              58.117984      1997.8024    
    916000   303.04506     -5.7120033      0              57.706895      2023.5178    
    917000   299.99429     -5.7354218      0              57.045037      2162.6083    
    918000   298.18411     -4.788215       0              57.613423      2141.9925    
    919000   304.76481     -4.9515342      0              58.82726       2149.8133    
    920000   294.53561     -4.6758239      0              56.962284      2096.5113    
    921000   300.93725     -5.0536859      0              57.924108      2139.4976    
    922000   303.58585     -4.7363545      0              58.795716      2124.5537    
    923000   294.51169     -1.8182676      0              59.814834      2263.3316    
    924000   299.40344     -4.4827525      0              58.174057      2043.7682    
    925000   311.09144     -4.2359595      0              60.866823      2104.1844    
    926000   299.39794     -4.562662       0              58.092995      2068.771     
    927000   297.28813     -3.8935906      0              58.320544      2015.2766    
    928000   300.77268     -4.878547       0              58.064807      2016.8891    
    929000   308.17706     -4.8152087      0              59.677675      2000.459     
    930000   295.49315     -4.8480147      0              56.990479      2036.3414    
    931000   298.73298     -5.1753837      0              57.341117      2091.5992    
    932000   296.90628     -4.8604438      0              57.273779      2003.2201    
    933000   300.59445     -5.2893111      0              57.616743      2074.421     
    934000   301.17054     -5.3870957      0              57.639517      2126.6649    
    935000   296.03034     -3.5906808      0              58.360233      2112.9531    
    936000   301.61671     -5.518063       0              57.601922      2068.8106    
    937000   299.56841     -5.6002018      0              57.091132      2056.1711    
    938000   302.1239      -4.786631       0              58.439494      2106.292     
    939000   305.95504     -5.6872259      0              58.34065       2076.1751    
    940000   307.68834     -3.9136884      0              60.47692       2097.1959    
    941000   303.0274      -3.8805161      0              59.534688      2102.6232    
    942000   291.49386     -5.7038939      0              55.297661      2072.8193    
    943000   312.19024     -3.8783338      0              61.454397      2156.4204    
    944000   302.67944     -3.9892393      0              59.353146      2020.5612    
    945000   304.24452     -3.4698939      0              60.200018      2110.1096    
    946000   303.15897     -5.7346922      0              57.708045      2068.3532    
    947000   306.42142     -3.9699068      0              60.15557       2103.9738    
    948000   292.17718     -4.0665919      0              57.077962      2057.2012    
    949000   308.05986     -3.3469059      0              61.12145       2058.4634    
    950000   296.97067     -5.3479173      0              56.79978       2033.8612    
    951000   297.90098     -3.7043801      0              58.638006      2072.1584    
    952000   290.14818     -3.603192       0              57.116749      2147.4083    
    953000   304.18527     -5.3150927      0              58.34242       2117.9575    
    954000   291.61362     -4.4291312      0              56.597486      2014.3337    
    955000   298.53685     -2.734627       0              59.740829      2147.4145    
    956000   305.5109      -3.6450093      0              60.28992       2082.3232    
    957000   302.20216     -4.9337384      0              58.308764      2088.9754    
    958000   305.18496     -2.5331765      0              61.333544      2206.7515    
    959000   295.89181     -4.1313381      0              57.790583      2027.8327    
    960000   303.76765     -4.0966279      0              59.47349       2101.231     
    961000   294.15937     -6.2754786      0              55.283893      2012.4423    
    962000   294.01942     -3.7121161      0              57.817967      2146.0216    
    963000   303.9504      -4.5893033      0              59.019059      2095.4636    
    964000   295.23531     -4.5545834      0              57.229952      2004.7971    
    965000   304.7371      -5.2559806      0              58.517014      2024.9879    
    966000   292.29985     -5.8001147      0              55.370111      2011.3514    
    967000   299.28449     -6.0817657      0              56.55015       2111.6351    
    968000   296.89871     -5.5012823      0              56.631357      2013.8465    
    969000   297.42547     -5.2013558      0              57.04152       2136.4257    
    970000   308.1909      -3.1110097      0              61.384769      2136.2305    
    971000   303.27385     -4.3757628      0              59.091014      2132.5207    
    972000   304.69166     -6.0616871      0              57.7018        1961.8605    
    973000   298.97176     -5.7784276      0              56.788042      2111.431     
    974000   318.24201     -5.3278987      0              61.271298      2162.1231    
    975000   299.54655     -3.9851374      0              58.701621      2086.0014    
    976000   299.46689     -2.5986203      0              60.071468      2219.6841    
    977000   306.92048     -4.6098749      0              59.620041      2151.0619    
    978000   307.27202     -4.0160741      0              60.287409      2014.8453    
    979000   301.3414      -4.3239532      0              58.738418      2144.2074    
    980000   307.3015      -4.7297985      0              59.579854      1993.9077    
    981000   304.83069     -5.0000758      0              58.792505      2131.6058    
    982000   307.95189     -5.7439726      0              58.701789      1891.9652    
    983000   302.24309     -3.4250904      0              59.825978      2080.1002    
    984000   297.81264     -3.9152034      0              58.408696      2112.1118    
    985000   290.96006     -2.4580789      0              58.431765      2105.7612    
    986000   295.1173      -5.6283472      0              56.131493      2050.6978    
    987000   305.10119     -3.9244318      0              59.924758      2082.246     
    988000   297.21278     -6.305807       0              55.892558      1971.2423    
    989000   294.49764     -4.6704802      0              56.959682      2078.2571    
    990000   298.72126     -4.601004       0              57.913043      2027.1317    
    991000   296.62244     -3.9261732      0              58.148649      2034.7382    
    992000   304.12653     -6.3394424      0              57.305778      2015.5281    
    993000   300.12694     -4.2702152      0              58.538002      2052.2083    
    994000   304.43945     -4.6604705      0              59.050235      2198.794     
    995000   303.54071     -4.6455084      0              58.877117      2115.3692    
    996000   294.6893      -4.688237       0              56.982033      2058.8958    
    997000   297.9549      -3.9621989      0              58.391471      2143.1942    
    998000   300.22483     -4.606496       0              58.222207      2191.4529    
    999000   303.56252     -5.2327414      0              58.294447      2068.2642    
   1000000   290.78923     -4.0544293      0              56.799666      2026.4462    
   1001000   304.96568     -6.4637085      0              57.357123      2043.8223    
   1002000   311.47832     -3.8440214      0              61.339724      2113.3178    
   1003000   289.5106      -5.521639       0              55.064874      1954.8431    
   1004000   290.1423      -4.3914885      0              56.327221      2086.3435    
   1005000   310.59779     -5.7119035      0              59.287572      2114.5548    
   1006000   295.82654     -3.2842062      0              58.624056      2147.1699    
   1007000   303.85448     -4.3901936      0              59.198094      2107.7088    
   1008000   300.29151     -5.9245484      0              56.918108      2078.0956    
   1009000   291.9512      -3.9916869      0              57.105577      2014.0733    
   1010000   305.86582     -3.9629531      0              60.046253      2094.629     
   1011000   294.52604     -5.971369       0              55.664737      1967.3972    
   1012000   298.51236     -4.3520654      0              58.118266      2073.5496    
   1013000   290.71861     -4.7623254      0              56.076991      2089.4548    
   1014000   285.00407     -3.3435181      0              56.299904      2113.9728    
   1015000   290.13678     -6.0665588      0              54.650996      2085.7737    
   1016000   294.63747     -4.595873       0              57.063551      2092.0283    
   1017000   309.38373     -3.6622067      0              61.083199      2042.4246    
   1018000   314.89033     -4.0198067      0              61.877978      2188.0497    
   1019000   299.0043      -4.0810652      0              58.492215      2179.2286    
   1020000   299.80834     -5.5198313      0              57.221711      2014.3847    
   1021000   304.9475      -5.7776033      0              58.039424      2003.4235    
   1022000   304.70529     -5.7509256      0              58.015414      2094.802     
   1023000   294.97016     -4.4999637      0              57.229083      2065.6298    
   1024000   301.80155     -5.8553195      0              57.303348      2031.8612    
   1025000   296.97965     -4.3337384      0              57.815839      1938.9375    
   1026000   303.91736     -5.6585432      0              57.942904      2083.5336    
   1027000   300.43182     -5.5316233      0              57.340398      2094.9978    
   1028000   294.71929     -4.7936098      0              56.882936      2068.3829    
   1029000   301.27999     -3.149017       0              59.900501      2080.1417    
   1030000   291.15407     -4.481783       0              56.448663      2094.09      
   1031000   309.02219     -5.7377114      0              58.932035      2146.3017    
   1032000   300.00701     -3.5797356      0              59.203384      2086.5061    
   1033000   302.76438     -4.5444275      0              58.815733      2065.3103    
   1034000   305.80317     -4.1983628      0              59.797731      2024.2221    
   1035000   289.19044     -2.5384856      0              57.981026      2128.7161    
   1036000   300.26036     -5.664851       0              57.171287      2103.7162    
   1037000   295.33192     -4.7723548      0              57.032399      2027.3482    
   1038000   298.48038     -4.1754043      0              58.288234      2168.0778    
   1039000   299.45883     -4.1781888      0              58.490211      2084.5218    
   1040000   301.08153     -4.537109       0              58.470878      2116.2499    
   1041000   300.41116     -3.4559138      0              59.411782      2173.3886    
   1042000   299.09696     -3.8206613      0              58.77201       2123.5934    
   1043000   302.02092     -3.8409494      0              59.363626      2150.8065    
   1044000   307.6977      -5.3164425      0              59.076124      2150.2149    
   1045000   306.28557     -2.153056       0              61.943992      2194.4975    
   1046000   311.26828     -5.5157935      0              59.623995      2112.1768    
   1047000   303.12991     -5.545183       0              57.891472      2083.3827    
   1048000   296.45078     -5.3140192      0              56.72488       2061.7343    
   1049000   306.88897     -3.9257056      0              60.297617      2139.097     
   1050000   295.30223     -4.6672177      0              57.131323      2125.9922    
   1051000   298.11091     -5.049265       0              57.337054      2169.4706    
   1052000   301.3545      -5.5523992      0              57.512712      2129.8218    
   1053000   306.17403     -4.6246694      0              59.449035      2144.6558    
   1054000   302.19181     -4.1785034      0              59.061835      2156.4133    
   1055000   304.9329      -3.7820988      0              60.031872      2127.2706    
   1056000   300.1275      -5.6159953      0              57.19234       2106.6592    
   1057000   303.00925     -4.490462       0              58.920942      2146.6167    
   1058000   301.95348     -4.861983       0              58.32848       2124.3246    
   1059000   300.58054     -3.5872743      0              59.31587       2173.5038    
   1060000   300.89717     -4.3675925      0              58.601813      2120.7939    
   1061000   299.46696     -3.9207919      0              58.74931       2092.16      
   1062000   300.85565     -4.4443883      0              58.516328      2094.5786    
   1063000   297.81905     -3.9264331      0              58.398807      2036.3079    
   1064000   301.87502     -4.8465839      0              58.327457      2005.1113    
   1065000   296.03081     -3.689587       0              58.261425      2235.647     
   1066000   310.22955     -4.1016066      0              60.820805      2202.2428    
   1067000   302.46618     -4.9774914      0              58.320264      2198.4865    
   1068000   294.53855     -5.1269641      0              56.511759      2067.6984    
   1069000   302.46626     -4.9859676      0              58.311805      2016.705     
   1070000   297.14558     -4.8708846      0              57.313418      2157.6197    
   1071000   297.35941     -3.2625775      0              58.966473      2309.7348    
   1072000   290.61079     -3.7164919      0              57.100261      2127.8468    
   1073000   304.0554      -4.2729003      0              59.357436      2140.913     
   1074000   302.39886     -4.868562       0              58.415105      2160.5728    
   1075000   292.58606     -3.5032946      0              57.726827      2124.2024    
   1076000   297.58747     -4.8119196      0              57.464856      2047.7375    
   1077000   304.82946     -5.1303586      0              58.661965      2018.1348    
   1078000   294.1611      -5.6524434      0              55.90729       1981.6888    
   1079000   289.35998     -4.7940761      0              55.760916      2184.3149    
   1080000   306.58106     -4.3818809      0              59.777005      2098.3087    
   1081000   298.87284     -5.408518       0              57.137252      2079.9914    
   1082000   304.39634     -4.3751571      0              59.326528      2100.043     
   1083000   289.54318     -6.0677361      0              54.525594      2009.239     
   1084000   304.15216     -5.7599545      0              57.890629      2148.3746    
   1085000   308.61886     -5.8345468      0              58.750794      2076.2781    
   1086000   295.69085     -5.7073691      0              56.172499      1996.2347    
   1087000   317.09904     -5.1382685      0              61.221737      2089.9722    
   1088000   295.69913     -4.0723342      0              57.809266      2051.429     
   1089000   294.59555     -3.4740073      0              58.176645      2119.2956    
   1090000   305.36548     -5.769976       0              58.134523      2107.1744    
   1091000   294.77476     -4.9395995      0              56.748555      2008.9895    
   1092000   294.02273     -5.1109998      0              56.419775      2011.6986    
   1093000   297.56197     -4.6184983      0              57.652942      1976.6046    
   1094000   300.30213     -4.3439361      0              58.500944      2117.2442    
   1095000   295.86375     -3.6222781      0              58.293773      2101.8945    
   1096000   293.75608     -4.9908958      0              56.484079      2090.1272    
   1097000   295.04749     -4.4542978      0              57.290933      2138.3771    
   1098000   304.4818      -5.0379545      0              58.681614      2015.1418    
   1099000   298.24471     -5.5675251      0              56.846793      2066.7427    
   1100000   299.08171     -4.7329452      0              57.856535      2021.5149    
   1101000   316.67136     -3.4769149      0              62.793588      2228.267     
   1102000   301.01013     -4.3715378      0              58.621507      2120.7925    
   1103000   306.77784     -4.0117402      0              60.188326      2003.8465    
   1104000   285.42685     -3.1231857      0              56.608711      2164.4965    
   1105000   297.28776     -4.0236457      0              58.19041       2174.1522    
   1106000   299.07639     -4.8441716      0              57.744194      2102.1996    
   1107000   300.63109     -5.1621202      0              57.751602      1988.7839    
   1108000   306.55721     -5.4688511      0              58.685043      2004.0498    
   1109000   298.5042      -3.8566017      0              58.612022      2086.9104    
   1110000   308.9316      -5.0046114      0              59.646175      2133.9283    
   1111000   300.07749     -2.586908       0              60.210961      2173.192     
   1112000   301.33717     -6.0167648      0              57.044719      2095.0586    
   1113000   311.91514     -5.6447277      0              59.630432      2048.0513    
   1114000   298.32881     -3.908088       0              58.523831      2135.0216    
   1115000   296.31102     -4.9186074      0              57.091044      2036.7006    
   1116000   297.61067     -4.6752143      0              57.606417      2073.5309    
   1117000   293.80442     -5.1047037      0              56.380386      1993.9222    
   1118000   291.00497     -5.8047409      0              55.094502      1994.3836    
   1119000   294.00741     -3.5836189      0              57.943951      2102.2675    
   1120000   305.10627     -3.8196085      0              60.030645      2063.7557    
   1121000   290.96596     -5.5849657      0              55.306114      2032.8644    
   1122000   314.53194     -3.4187767      0              62.404007      2164.6665    
   1123000   294.33481     -3.9212501      0              57.674835      2072.6274    
   1124000   297.18176     -6.2177399      0              55.974134      1945.4619    
   1125000   303.18013     -4.4203734      0              59.026791      2037.0354    
   1126000   296.05487     -4.3901741      0              57.565872      2090.4044    
   1127000   300.25467     -4.884661       0              57.950287      2008.6158    
   1128000   297.75772     -4.1283787      0              58.184026      2205.2897    
   1129000   300.81906     -4.8856957      0              58.067364      2056.5569    
   1130000   301.42154     -5.9232227      0              57.155918      2080.7288    
   1131000   293.48695     -4.9187598      0              56.499892      1993.7466    
   1132000   289.64383     -4.0103173      0              56.604078      2083.1679    
   1133000   304.72135     -3.5477286      0              60.221972      2095.9828    
   1134000   295.87653     -5.0950068      0              56.823719      2067.7351    
   1135000   301.38575     -6.538744       0              56.532908      1993.4151    
   1136000   286.60102     -6.3891048      0              53.588513      2100.6622    
   1137000   288.34832     -5.445279       0              54.898001      1993.1734    
   1138000   307.60075     -5.4567128      0              58.915565      2043.5263    
   1139000   296.63573     -3.8585552      0              58.21905       2104.286     
   1140000   305.15949     -4.7249352      0              59.136455      2042.0147    
   1141000   310.62485     -3.4959022      0              61.509235      2148.2893    
   1142000   292.2402      -4.696408       0              56.461334      2112.628     
   1143000   304.51689     -4.7769287      0              58.949983      2108.4797    
   1144000   295.31963     -4.740634       0              57.061547      2091.8785    
   1145000   296.89954     -3.1783507      0              58.954461      2128.604     
   1146000   298.63772     -4.6311964      0              57.865368      2013.9222    
   1147000   305.54452     -6.723515       0              57.218452      1995.7483    
   1148000   300.85367     -4.1674935      0              58.792809      2013.9678    
   1149000   299.46176     -4.6798547      0              57.98916       2087.3983    
   1150000   308.60177     -5.6206353      0              58.961129      2211.0536    
   1151000   292.6906      -5.2200909      0              56.031907      1968.7885    
   1152000   296.42192     -6.5509373      0              55.481923      1963.8604    
   1153000   297.88898     -3.338785       0              59.001089      2108.9833    
   1154000   296.77021     -4.441388       0              57.664359      2116.0968    
   1155000   303.51752     -5.7112653      0              57.806506      2020.9214    
   1156000   306.79054     -6.9384526      0              57.26427       1988.335     
   1157000   306.45006     -3.6530528      0              60.478418      2053.8728    
   1158000   301.59477     -6.3704968      0              56.744897      2059.4789    
   1159000   297.40624     -5.8235347      0              56.415315      2134.5758    
   1160000   308.649       -3.1275019      0              61.464146      2062.9143    
   1161000   297.80967     -5.9221147      0              56.401162      2054.0793    
   1162000   307.46387     -4.1254132      0              60.218219      2063.033     
   1163000   302.64537     -5.7820407      0              57.553215      2012.0447    
   1164000   305.13128     -5.2143366      0              58.641151      2124.5798    
   1165000   295.74366     -4.0970731      0              57.793846      2143.0938    
   1166000   302.57047     -4.646879       0              58.672702      2155.2656    
   1167000   298.13215     -4.7502955      0              57.640467      2168.3289    
   1168000   301.40509     -3.0587457      0              60.016953      2251.5825    
   1169000   305.40988     -3.2219905      0              60.6918        2067.5487    
   1170000   303.39907     -3.9075027      0              59.58548       2188.6967    
   1171000   295.84145     -3.9847679      0              57.926615      2183.8923    
   1172000   300.28289     -7.1950114      0              55.645842      2009.6571    
   1173000   298.39787     -3.3692069      0              59.077164      2161.1081    
   1174000   288.89677     -4.9699451      0              55.48811       2082.5621    
   1175000   298.88835     -4.2160877      0              58.332927      2147.1954    
   1176000   299.12937     -4.6250878      0              57.974365      2095.734     
   1177000   307.32227     -3.850849       0              60.46315       2064.0683    
   1178000   308.81317     -4.225636       0              60.400368      2051.2735    
   1179000   301.31663     -6.0272491      0              57.029937      2033.8099    
   1180000   294.03234     -5.82274        0              55.710048      2070.4202    
   1181000   310.18141     -3.7339755      0              61.178363      2212.9842    
   1182000   299.64744     -5.0433864      0              57.664485      2150.5478    
   1183000   296.41171     -3.5095156      0              58.521208      2107.7655    
   1184000   298.60989     -5.8642878      0              56.626453      2047.1304    
   1185000   302.71631     -3.7767369      0              59.573363      2087.6869    
   1186000   303.39329     -5.119334       0              58.37244       1994.7703    
   1187000   295.81384     -4.5012955      0              57.404309      2034.0731    
   1188000   303.82666     -6.8363621      0              56.746104      2011.1665    
   1189000   295.78936     -2.6989249      0              59.201557      2229.8939    
   1190000   302.69528     -3.9168138      0              59.428885      2140.1531    
   1191000   303.48645     -2.6897975      0              60.821473      2112.4062    
   1192000   295.02361     -5.1120576      0              56.628175      2039.3265    
   1193000   299.7597      -4.6866141      0              58.044749      2052.5234    
   1194000   291.56284     -3.2379875      0              57.778002      2149.6567    
   1195000   302.28543     -4.4185969      0              58.841333      2111.2508    
   1196000   296.39208     -3.9577678      0              58.068848      2095.8132    
   1197000   300.77964     -3.7952652      0              59.149544      2211.3788    
   1198000   297.23652     -1.9391686      0              60.264165      2094.9984    
   1199000   285.84592     -4.8230578      0              54.99654       2053.7922    
   1200000   294.6267      -6.6805845      0              54.976586      2046.7176    
   1201000   296.76792     -6.1083324      0              55.996935      2076.8769    
   1202000   296.02419     -6.2323128      0              55.717314      2107.2702    
   1203000   289.06319     -4.156779       0              56.336103      1989.9327    
   1204000   294.52197     -5.524594       0              56.110659      2094.5301    
   1205000   291.98239     -4.0055797      0              57.098211      2026.6135    
   1206000   301.26376     -5.6676034      0              57.378518      2106.6799    
   1207000   299.65111     -4.2439007      0              58.464738      2037.5813    
   1208000   301.08935     -4.0723229      0              58.9373        2244.4304    
   1209000   305.97626     -4.2697202      0              59.762596      2163.1868    
   1210000   302.50746     -5.0793777      0              58.227017      2079.2605    
   1211000   303.44728     -6.0272978      0              57.475775      2088.8121    
   1212000   308.82126     -3.480826       0              61.14687       2168.113     
   1213000   303.3393      -3.7289291      0              59.751545      2201.9318    
   1214000   303.88035     -4.5202688      0              59.073433      2161.3188    
   1215000   291.65866     -5.7877546      0              55.248288      2096.8374    
   1216000   298.15528     -4.0548591      0              58.340746      2085.6927    
   1217000   299.10004     -4.7338586      0              57.859457      2152.4751    
   1218000   309.193       -3.5310175      0              61.174475      2162.3065    
   1219000   299.40408     -3.1497741      0              59.507169      2138.0691    
   1220000   299.5744      -4.4513076      0              58.24128       2068.0414    
   1221000   295.93658     -2.6844636      0              59.246827      2052.0564    
   1222000   304.49218     -3.6819035      0              60.039838      2265.9258    
   1223000   284.98222     -4.4886035      0              55.150244      2070.2649    
   1224000   299.3674      -5.3074239      0              57.341844      2073.3993    
   1225000   286.75236     -5.9640492      0              54.045242      1973.9742    
   1226000   301.95771     -3.7134168      0              59.477931      2111.5784    
   1227000   308.4062      -4.7465731      0              59.794263      2067.6243    
   1228000   295.37813     -5.9643813      0              55.850043      2039.9823    
   1229000   295.20304     -3.7622689      0              58.015512      2062.7872    
   1230000   305.55844     -4.3372029      0              59.607677      2136.4909    
   1231000   299.79437     -4.5190261      0              58.219594      2100.6314    
   1232000   292.39028     -5.0321353      0              56.157014      2073.9148    
   1233000   298.00051     -4.0197343      0              58.34348       2085.4645    
   1234000   298.82202     -6.2573992      0              56.277735      1982.8691    
   1235000   300.88784     -4.4865401      0              58.480913      2077.658     
   1236000   304.9939      -4.3701756      0              59.456561      2144.4848    
   1237000   294.99164     -4.991405       0              56.742138      2085.2949    
   1238000   296.41662     -6.3984329      0              55.633317      1989.1703    
   1239000   289.69024     -3.1342841      0              57.489823      2073.0448    
   1240000   301.78813     -5.300939       0              57.85492       2157.022     
   1241000   298.08839     -4.4002736      0              57.981333      2045.7404    
   1242000   298.31723     -2.5866579      0              59.842837      2184.7049    
   1243000   307.63033     -3.575848       0              60.80262       2150.4422    
   1244000   299.95241     -4.6181871      0              58.153506      2163.746     
   1245000   298.51234     -4.1530046      0              58.317322      2075.1022    
   1246000   301.21197     -5.4297833      0              57.605501      2064.8227    
   1247000   304.55086     -4.4607949      0              59.273226      2105.3394    
   1248000   306.34606     -4.8210355      0              59.288671      2036.0535    
   1249000   293.30626     -5.4728272      0              55.908012      2049.8199    
   1250000   289.59788     -5.2595424      0              55.345237      2085.4635    
   1251000   303.60154     -6.4499887      0              57.085367      2016.1586    
   1252000   297.02808     -5.8878118      0              56.271901      2103.4031    
   1253000   293.53685     -6.0677582      0              55.361338      2055.0553    
   1254000   297.33074     -4.1823772      0              58.040673      2063.6252    
   1255000   293.5212      -4.2251517      0              57.200668      2075.3757    
   1256000   296.77883     -4.5180028      0              57.589549      1993.9257    
   1257000   291.06483     -4.7693109      0              56.14246       2110.895     
   1258000   303.79269     -5.3142766      0              58.26108       2055.6638    
   1259000   302.58417     -4.6422984      0              58.680149      2052.0473    
   1260000   301.28718     -4.7085536      0              58.342471      2019.4509    
   1261000   300.76267     -3.5483601      0              59.392898      2148.9871    
   1262000   299.20575     -4.4230317      0              58.192407      2155.5273    
   1263000   291.00298     -3.8222874      0              57.076538      2140.1694    
   1264000   303.95207     -4.231303       0              59.377408      2069.2999    
   1265000   295.64176     -5.8208117      0              56.048782      1967.1752    
   1266000   304.0735      -4.7004238      0              58.933698      2056.2546    
   1267000   303.67496     -5.5585014      0              57.992218      2125.6092    
   1268000   289.40678     -4.3177096      0              56.247076      2075.7918    
   1269000   313.13077     -3.3938725      0              62.135684      2202.6138    
   1270000   301.0635      -4.8326839      0              58.171531      2077.4325    
   1271000   301.24197     -4.8415292      0              58.200033      2130.4313    
   1272000   291.83676     -5.3682374      0              55.705076      2066.5373    
   1273000   291.92506     -5.1889615      0              55.902831      1992.7579    
   1274000   300.1105      -3.9798271      0              58.824949      2047.5289    
   1275000   296.39134     -4.0091327      0              58.017328      2148.3252    
   1276000   301.33569     -3.8570028      0              59.204173      1947.7526    
   1277000   303.88333     -4.1567154      0              59.437609      2128.0612    
   1278000   299.39859     -3.3424553      0              59.31334       2087.5352    
   1279000   299.81191     -4.4193678      0              58.322924      2125.5005    
   1280000   297.39642     -3.4335241      0              58.803272      2144.3449    
   1281000   308.02979     -3.9131197      0              60.548944      2184.6427    
   1282000   308.05056     -5.2602115      0              59.206198      2022.0373    
   1283000   301.50305     -4.6336562      0              58.462542      2154.1075    
   1284000   291.24737     -4.7275663      0              56.222403      2125.3231    
   1285000   296.09545     -3.6241276      0              58.340412      2161.4116    
   1286000   302.76592     -4.5829081      0              58.777575      2136.891     
   1287000   299.35113     -6.4878826      0              56.15798       2012.2493    
   1288000   310.77031     -4.1294955      0              60.906084      2250.9161    
   1289000   296.43717     -5.5783309      0              56.457721      2106.1003    
   1290000   296.37909     -6.5548051      0              55.469091      2000.9758    
   1291000   305.33258     -5.4667276      0              58.430885      2019.3861    
   1292000   291.81803     -3.7733402      0              57.296053      2101.3954    
   1293000   299.55435     -5.6206992      0              57.067691      2085.3266    
   1294000   309.55211     -5.2611677      0              59.519475      2071.0474    
   1295000   294.75467     -4.71922        0              56.964731      2061.0971    
   1296000   297.37196     -3.4404325      0              58.791243      2075.2164    
   1297000   295.21669     -3.8497766      0              57.930861      2002.8382    
   1298000   295.55385     -5.000906       0              56.850291      2083.8077    
   1299000   312.97848     -5.5112603      0              59.986428      2052.5346    
   1300000   290.48207     -3.6937602      0              57.096055      2192.9513    
   1301000   305.98624     -4.3591593      0              59.675246      2107.4856    
   1302000   287.72536     -5.2891315      0              54.923781      2127.171     
   1303000   305.7264      -4.9137373      0              59.066292      2130.8365    
   1304000   303.84137     -3.2678644      0              60.317681      2056.4657    
   1305000   296.98863     -3.3090568      0              58.842401      2204.7283    
   1306000   298.48644     -3.1488317      0              59.316075      2100.9052    
   1307000   311.35912     -5.1850635      0              59.973737      2154.2849    
   1308000   306.44793     -6.2599722      0              57.871052      2124.6975    
   1309000   292.04541     -3.5933831      0              57.523596      2153.285     
   1310000   295.29052     -4.3770253      0              57.419064      2137.4216    
   1311000   312.73917     -5.0101813      0              60.437425      2072.0439    
   1312000   285.83734     -4.0020295      0              55.815773      2139.4714    
   1313000   305.68377     -3.99699        0              59.974118      2139.2264    
   1314000   291.86363     -5.0440093      0              56.034928      2072.6237    
   1315000   305.02976     -5.6656563      0              58.168586      2078.8949    
   1316000   295.53198     -5.5299246      0              56.316696      1975.6233    
   1317000   292.63161     -4.0290504      0              57.210603      2017.3131    
   1318000   298.41126     -3.7018498      0              58.747324      2124.9432    
   1319000   303.22598     -3.9784762      0              59.478283      2073.2295    
   1320000   302.008       -2.0230522      0              61.178818      2246.1932    
   1321000   297.29565     -4.5310264      0              57.68468       2068.4247    
   1322000   321.0242      -2.5926907      0              64.588742      2211.6141    
   1323000   303.68451     -4.1074143      0              59.445303      2106.3611    
   1324000   303.38168     -4.1410351      0              59.348309      2048.0525    
   1325000   294.7387      -4.4399602      0              57.240647      2152.3242    
   1326000   296.03796     -5.8836463      0              56.068862      1973.4348    
   1327000   298.34982     -5.0321257      0              57.404191      2009.0036    
   1328000   295.11047     -3.5433193      0              58.21509       2133.8157    
   1329000   299.22406     -5.856914       0              56.762355      2093.6395    
   1330000   301.08199     -4.1387064      0              58.869377      2192.8237    
   1331000   309.34148     -3.9172262      0              60.819338      2198.6674    
   1332000   307.881       -3.9724531      0              60.458472      2110.2222    
   1333000   307.54509     -5.5738854      0              58.786745      2048.5223    
   1334000   305.69445     -4.0840082      0              59.889335      2148.6115    
   1335000   300.8191      -3.0907169      0              59.862351      2119.9948    
   1336000   293.99643     -5.1285426      0              56.39673       2120.1061    
   1337000   300.14825     -4.6532959      0              58.159381      1999.5695    
   1338000   297.8191      -5.1417423      0              57.183508      1998.4325    
   1339000   308.83381     -5.0721953      0              59.558127      2125.2021    
   1340000   303.20216     -3.5911586      0              59.860616      2055.1206    
   1341000   300.92166     -4.1130191      0              58.861511      2107.0091    
   1342000   294.28978     -4.2753148      0              57.311347      2110.5408    
   1343000   305.63294     -5.3915675      0              58.568903      2066.1785    
   1344000   286.78743     -2.5854481      0              57.431181      2221.3207    
   1345000   309.28116     -4.9349059      0              59.789034      2116.0585    
   1346000   297.35277     -4.3047011      0              57.92296       2071.0686    
   1347000   304.07239     -4.6767796      0              58.95711       2126.0462    
   1348000   297.54056     -3.2960615      0              58.970898      2022.4403    
   1349000   298.27747     -3.8901559      0              58.531019      2062.4227    
   1350000   306.6053      -5.3027735      0              58.861185      2041.5739    
   1351000   308.51373     -4.0747747      0              60.488565      2192.3677    
   1352000   287.44796     -4.9287997      0              55.226061      2077.624     
   1353000   297.68965     -4.8044017      0              57.493759      2135.3355    
   1354000   296.00947     -5.9004815      0              56.046064      2115.9171    
   1355000   318.26595     -3.5293735      0              63.074834      2180.3703    
   1356000   302.29016     -4.983955       0              58.276963      2103.9218    
   1357000   290.37414     -5.4524529      0              55.314774      2071.3169    
   1358000   301.95175     -7.4208157      0              55.769283      2102.9531    
   1359000   301.85993     -3.7222708      0              59.448612      2196.1975    
   1360000   305.91794     -5.3516007      0              58.668511      2192.0959    
   1361000   290.13687     -5.7757621      0              54.941813      1967.4653    
   1362000   309.04842     -4.9892956      0              59.685938      2081.0695    
   1363000   298.42381     -4.4458717      0              58.005928      2183.448     
   1364000   304.12879     -4.4768305      0              59.168863      2132.5558    
   1365000   299.3612      -5.7469402      0              56.90103       2074.9289    
   1366000   304.2976      -4.1788934      0              59.502127      2150.3248    
   1367000   302.77854     -4.6444364      0              58.718686      2092.4739    
   1368000   302.34326     -2.7342637      0              60.537767      2126.658     
   1369000   305.11979     -3.765799       0              60.087282      2075.8712    
   1370000   299.82533     -2.977099       0              59.768         2139.5212    
   1371000   308.02948     -4.7941778      0              59.667821      2141.7838    
   1372000   293.6655      -5.3748257      0              56.081193      2065.8595    
   1373000   295.33097     -6.7294596      0              55.075094      2042.0574    
   1374000   302.64429     -5.6653739      0              57.669654      2073.8146    
   1375000   292.73151     -4.6206361      0              56.639924      2111.1861    
   1376000   299.38316     -5.1513877      0              57.501177      2061.8363    
   1377000   307.58699     -5.8762626      0              58.493136      2001.0583    
   1378000   293.74397     -5.7222997      0              55.75014       1938.6248    
   1379000   288.6254      -2.6303411      0              57.770925      2159.978     
   1380000   307.56017     -5.4247405      0              58.939046      2089.4384    
   1381000   299.39826     -3.1666153      0              59.489109      2115.6634    
   1382000   302.5531      -5.5298693      0              57.786075      2090.4266    
   1383000   304.3997      -4.7610512      0              58.941337      2142.1219    
   1384000   306.01136     -4.9230415      0              59.116621      2127.9439    
   1385000   304.23617     -4.2655515      0              59.402613      2060.241     
   1386000   295.49351     -4.2241408      0              57.614428      2073.8654    
   1387000   311.0949      -6.5796299      0              58.523877      2048.2335    
   1388000   302.62468     -4.4939691      0              58.836957      1994.4201    
   1389000   302.84237     -4.1376541      0              59.238828      2044.2454    
   1390000   293.5402      -5.1981828      0              56.231613      2078.4395    
   1391000   292.45087     -2.700729       0              58.501101      2221.1448    
   1392000   303.06755     -6.4188265      0              57.00478       2038.4282    
   1393000   298.2082      -4.1314299      0              58.275249      2125.09      
   1394000   300.70025     -5.9786306      0              56.949564      2065.6392    
   1395000   293.84356     -4.8213009      0              56.67198       2112.1928    
   1396000   295.18586     -3.3415645      0              58.432622      2131.1879    
   1397000   312.07226     -5.2394485      0              60.068591      2021.2258    
   1398000   298.13284     -3.2657704      0              59.125138      2142.0879    
   1399000   306.21503     -3.780257       0              60.302029      2100.0043    
   1400000   298.59813     -4.1888708      0              58.29941       2213.5865    
   1401000   314.31681     -3.9693205      0              61.808441      2114.4374    
   1402000   305.57336     -4.8540691      0              59.093932      2012.1042    
   1403000   296.32832     -4.2513006      0              57.761972      2008.172     
   1404000   297.56424     -4.1931591      0              58.078757      2070.5979    
   1405000   301.66942     -5.0991306      0              58.031884      2062.6779    
   1406000   305.12464     -5.162682       0              58.691415      2110.9165    
   1407000   299.53077     -4.7185232      0              57.964933      2201.4022    
   1408000   299.98116     -3.2216852      0              59.556025      2109.1001    
   1409000   301.02126     -5.6012885      0              57.394085      2059.1128    
   1410000   301.46833     -5.9330289      0              57.155903      2126.5469    
   1411000   307.13732     -5.7784649      0              58.49683       2110.1365    
   1412000   301.39005     -5.9621541      0              57.110397      2049.6073    
   1413000   304.92244     -4.0666494      0              59.745132      2168.774     
   1414000   306.37637     -3.5769665      0              60.539082      2081.0965    
   1415000   309.68409     -3.846185       0              60.962079      2167.9516    
   1416000   295.58576     -2.8416689      0              59.016205      2076.7532    
   1417000   299.37149     -3.512584       0              59.13754       2175.6611    
   1418000   303.72466     -5.4997963      0              58.061324      2018.4381    
   1419000   312.70947     -3.8257223      0              61.615669      2236.7522    
   1420000   296.89606     -4.1759931      0              57.956091      2053.2575    
   1421000   301.36718     -7.2693613      0              55.798403      2039.217     
   1422000   300.19299     -4.3179467      0              58.504093      2144.4239    
   1423000   314.26679     -6.0422711      0              59.725023      2085.8447    
   1424000   300.01482     -6.064979       0              56.719776      2107.3747    
   1425000   300.19157     -4.062133       0              58.759609      2113.3716    
   1426000   310.71639     -3.6693525      0              61.354943      2075.7252    
   1427000   308.96492     -3.9672105      0              60.69055       2150.0114    
   1428000   295.64962     -2.9405971      0              58.930642      2048.5653    
   1429000   308.47847     -4.7271501      0              59.82881       2188.8793    
   1430000   296.68334     -4.5454314      0              57.542136      2087.7471    
   1431000   293.01244     -3.4582334      0              57.861118      2019.1126    
   1432000   295.65876     -3.9917215      0              57.88143       2097.0367    
   1433000   306.29666     -5.7118762      0              58.387493      2069.0746    
   1434000   308.70212     -5.2211766      0              59.381588      2038.6366    
   1435000   290.78613     -4.8097845      0              56.043662      1989.0002    
   1436000   298.02694     -4.5109149      0              57.857831      2122.2521    
   1437000   308.21184     -5.7798805      0              58.720281      2039.2447    
   1438000   294.59858     -3.4203063      0              58.230979      2096.9562    
   1439000   298.32834     -4.4304425      0              58.001377      2089.7708    
   1440000   285.43844     -4.2211254      0              55.513197      2060.7067    
   1441000   293.71023     -3.2180959      0              58.247284      2102.9635    
   1442000   294.67991     -4.7632363      0              56.905069      2144.9362    
   1443000   298.56481     -4.5590701      0              57.922237      2180.0247    
   1444000   302.73396     -4.9486407      0              58.405154      2014.8156    
   1445000   295.01218     -5.3730671      0              56.364774      2007.1524    
   1446000   291.66727     -1.678409       0              59.359434      2242.2159    
   1447000   301.85293     -2.5359816      0              60.633438      2061.1594    
   1448000   301.5221      -4.5903395      0              58.509846      2032.0881    
   1449000   308.4834      -3.452062       0              61.10493       2133.0261    
   1450000   295.89604     -3.9903206      0              57.932487      2050.3968    
   1451000   302.28528     -4.1653051      0              59.094593      2179.8047    
   1452000   295.96222     -4.4173208      0              57.519336      2069.6742    
   1453000   305.33339     -4.649259       0              59.248524      2104.1931    
   1454000   296.17043     -4.7832701      0              57.19696       1971.4216    
   1455000   297.24187     -4.0181368      0              58.186316      2203.2213    
   1456000   290.03358     -5.5459139      0              55.150045      2179.5519    
   1457000   302.30147     -5.1456574      0              58.117628      2066.8162    
   1458000   300.31061     -5.2134299      0              57.633224      2085.6686    
   1459000   297.51853     -4.0816646      0              58.180686      2148.5124    
   1460000   305.52383     -5.2953201      0              58.642316      2077.8712    
   1461000   296.72563     -3.513663       0              58.582756      2148.2096    
   1462000   293.4052      -5.7871302      0              55.614414      2125.392     
   1463000   302.82544     -4.3705018      0              59.002437      2114.3721    
   1464000   299.20619     -5.0182988      0              57.597232      2124.9187    
   1465000   294.99101     -4.5216814      0              57.211729      2090.6728    
   1466000   303.60222     -5.6323751      0              57.903121      2035.9275    
   1467000   301.93559     -4.2742535      0              58.912464      2108.7578    
   1468000   291.15588     -4.5307524      0              56.400071      2106.6782    
   1469000   292.11745     -4.3054948      0              56.826559      2211.9153    
   1470000   293.36523     -2.7406282      0              58.652551      2168.8805    
   1471000   301.74347     -4.2472178      0              58.899294      2169.1913    
   1472000   298.12844     -3.6087957      0              58.781191      2084.958     
   1473000   302.80698     -5.6092245      0              57.75985       2092.1371    
   1474000   304.59288     -4.8460287      0              58.896786      2119.1496    
   1475000   308.92941     -4.479584       0              60.170746      2116.7697    
   1476000   300.5709      -5.6429238      0              57.258203      2044.1454    
   1477000   305.41841     -3.7174329      0              60.198142      2048.1165    
   1478000   297.30136     -5.5208621      0              56.696041      2037.4421    
   1479000   294.67962     -3.6010404      0              58.067205      2066.5616    
   1480000   299.84494     -3.3901787      0              59.359024      2116.8402    
   1481000   295.54155     -4.7920352      0              57.056587      2131.1602    
   1482000   293.80537     -5.4032309      0              56.082058      2048.7685    
   1483000   303.68401     -3.1217469      0              60.430867      2205.7727    
   1484000   297.67519     -4.6977844      0              57.597349      2021.3679    
   1485000   295.99602     -5.348524       0              56.595208      1996.5493    
   1486000   308.52574     -4.6692498      0              59.896603      2125.8664    
   1487000   302.14458     -5.501128       0              57.729325      2067.8536    
   1488000   296.53638     -4.358786       0              57.698027      2177.1988    
   1489000   304.17953     -5.0375473      0              58.618765      2089.1269    
   1490000   309.68604     -3.9003533      0              60.908318      2142.1356    
   1491000   291.99612     -4.7704085      0              56.336255      2053.7605    
   1492000   293.74467     -5.7758018      0              55.696784      2008.101     
   1493000   297.65822     -6.7845895      0              55.506994      2078.7078    
   1494000   296.07482     -4.0239219      0              57.9363        2120.5313    
   1495000   295.22891     -5.0826701      0              56.700525      2114.6386    
   1496000   303.22268     -5.1792663      0              58.276804      2211.3643    
   1497000   295.02449     -5.2956037      0              56.444813      1993.9236    
   1498000   295.56867     -3.9305083      0              57.92379       2155.2217    
   1499000   291.58472     -3.8332596      0              57.187309      2137.831     
   1500000   293.79429     -4.6293666      0              56.853603      2072.0163    
   1501000   302.69287     -5.6961087      0              57.649087      2048.088     
   1502000   310.75984     -6.3273818      0              58.706005      2038.1532    
   1503000   309.1495      -5.1790513      0              59.517337      1983.0931    
   1504000   306.69084     -5.435094       0              58.746765      2098.097     
   1505000   303.56772     -4.8463821      0              58.681894      2033.8426    
   1506000   305.76407     -3.6399992      0              60.347913      2162.7475    
   1507000   300.28596     -5.2473879      0              57.594108      2016.8913    
   1508000   306.26695     -3.46511        0              60.628041      2094.7182    
   1509000   292.80727     -3.8258188      0              57.450595      2221.2576    
   1510000   296.6543      -4.0379273      0              58.043563      2018.4648    
   1511000   298.00743     -4.5023008      0              57.862362      2115.9125    
   1512000   299.87593     -5.6104041      0              57.145285      1974.3056    
   1513000   297.88314     -6.2019893      0              56.136663      2048.7471    
   1514000   298.19427     -3.5171095      0              58.886655      2083.4036    
   1515000   296.37779     -4.3197433      0              57.703882      2007.981     
   1516000   299.64995     -5.6111793      0              57.097218      2086.044     
   1517000   309.12323     -4.0682808      0              60.622611      2126.9494    
   1518000   296.33257     -4.5728373      0              57.441323      2079.8268    
   1519000   301.80527     -5.217105       0              57.94234       2079.4519    
   1520000   304.97294     -4.121397       0              59.700953      2048.9514    
   1521000   301.63577     -4.4622013      0              58.661773      2038.7537    
   1522000   294.06349     -5.5771512      0              55.962154      1995.618     
   1523000   299.13135     -3.8615363      0              58.738332      2166.309     
   1524000   292.89115     -5.4533584      0              55.84061       2050.2345    
   1525000   276.44027     -5.0108216      0              52.840436      2078.3825    
   1526000   296.22572     -4.9350531      0              57.056747      2069.4079    
   1527000   303.67581     -5.7276016      0              57.823295      2066.0228    
   1528000   300.04817     -4.7433032      0              58.048429      2112.7518    
   1529000   311.48893     -4.9522404      0              60.233726      2097.4638    
   1530000   303.66302     -4.6236649      0              58.924555      2104.7338    
   1531000   310.43979     -5.1251336      0              59.841276      2162.8312    
   1532000   294.0929      -4.0285886      0              57.516872      2116.4518    
   1533000   296.87036     -5.1744603      0              56.952245      2045.3386    
   1534000   288.98123     -3.4113881      0              57.064342      2182.4841    
   1535000   302.86467     -4.2585201      0              59.122629      2142.1283    
   1536000   295.70494     -3.818105       0              58.064712      2004.8921    
   1537000   297.94311     -5.7917585      0              56.559444      2054.3829    
   1538000   297.8945      -6.1363278      0              56.204701      2095.5736    
   1539000   297.2145      -4.7430035      0              57.455722      2140.119     
   1540000   296.93755     -4.4604742      0              57.680293      2102.494     
   1541000   293.93992     -3.385201       0              58.128245      2144.4638    
   1542000   301.06033     -3.859136       0              59.144414      2130.3328    
   1543000   303.47127     -5.1002731      0              58.40782       2166.8155    
   1544000   290.35608     -3.219362       0              57.544086      2091.1927    
   1545000   293.46989     -5.2254374      0              56.189645      2151.088     
   1546000   297.26246     -4.6999615      0              57.5088        1971.6289    
   1547000   303.27025     -5.8029841      0              57.663042      2083.4097    
   1548000   298.1929      -6.2747668      0              56.128711      1968.5325    
   1549000   310.41852     -4.7676165      0              60.194343      2120.2568    
   1550000   304.69923     -5.897259       0              57.86781       2089.7535    
   1551000   302.97636     -4.6456434      0              58.758877      2080.8646    
   1552000   306.9738      -5.9121485      0              58.328926      2066.5908    
   1553000   297.48926     -5.2111052      0              57.04512       2063.7335    
   1554000   291.8928      -2.0453254      0              59.039716      2130.5506    
   1555000   306.43253     -4.4965049      0              59.631296      2041.348     
   1556000   302.21919     -4.0102937      0              59.235773      2125.044     
   1557000   290.5704      -4.9023045      0              55.905994      2019.949     
   1558000   284.50585     -4.2156975      0              55.32346       2072.9248    
   1559000   303.95076     -4.532954       0              59.075482      2083.2283    
   1560000   302.30475     -4.663958       0              58.600015      2118.643     
   1561000   298.74161     -4.5608115      0              57.957496      2051.8444    
   1562000   298.08915     -6.527628       0              55.854137      1956.6255    
   1563000   295.73317     -5.9479103      0              55.940813      2089.3193    
   1564000   292.45083     -4.0650853      0              57.136736      2113.6699    
   1565000   303.18399     -3.4300637      0              60.017909      2082.7979    
   1566000   294.76697     -5.3796839      0              56.306841      1982.7284    
   1567000   297.59202     -4.5524656      0              57.725265      1949.0013    
   1568000   309.96388     -3.2185369      0              61.648278      2195.4511    
   1569000   299.65587     -3.9905042      0              58.719132      2119.65      
   1570000   295.60305     -4.3592563      0              57.502236      2121.1499    
   1571000   298.5043      -6.1671741      0              56.30147       2004.1926    
   1572000   298.632       -5.1852803      0              57.310087      2012.2849    
   1573000   301.76867     -2.4513993      0              60.700387      2183.7521    
   1574000   300.23659     -4.17974        0              58.651424      2149.1023    
   1575000   297.06324     -4.630644       0              57.536426      2095.2226    
   1576000   296.77227     -5.3014482      0              56.804729      2073.1403    
   1577000   302.26267     -4.0269555      0              59.228211      2036.7689    
   1578000   297.65875     -4.779294       0              57.512401      2124.3633    
   1579000   310.86319     -4.5160404      0              60.538975      2016.1042    
   1580000   299.58147     -2.966531       0              59.727534      2233.107     
   1581000   304.18401     -4.0520936      0              59.605156      2085.944     
   1582000   301.63343     -5.0308738      0              58.092611      1997.8946    
   1583000   297.03295     -6.0269245      0              56.133807      1988.7119    
   1584000   292.70629     -4.3009969      0              56.954284      2036.8309    
   1585000   302.99682     -5.4547585      0              57.954045      2043.4617    
   1586000   300.88984     -5.1663164      0              57.801555      2091.0823    
   1587000   286.39168     -7.1938861      0              52.739923      2038.7174    
   1588000   308.41751     -5.3348259      0              59.208377      1996.3109    
   1589000   300.39691     -4.5940394      0              58.270676      2128.0127    
   1590000   300.21053     -4.614382       0              58.211328      2079.9418    
   1591000   292.40347     -4.5340905      0              56.65782       2112.2784    
   1592000   297.19664     -3.1606624      0              59.034325      2070.2188    
   1593000   300.17328     -3.4331027      0              59.384812      2146.6291    
   1594000   300.84193     -4.4838255      0              58.47402       2078.6682    
   1595000   304.39657     -3.4996144      0              60.202118      2099.9127    
   1596000   295.06868     -3.868255       0              57.881409      2109.5106    
   1597000   299.8904      -4.843721       0              57.914995      2157.2018    
   1598000   302.9855      -3.2436839      0              60.162751      2216.2687    
   1599000   296.50282     -4.1341013      0              57.915689      2132.2387    
   1600000   302.48293     -3.1935931      0              60.107668      2113.9363    
   1601000   305.14488     -5.6427119      0              58.21562       1940.865     
   1602000   295.06039     -5.2136911      0              56.534239      2080.0406    
   1603000   301.45266     -5.089145       0              57.996508      1983.6322    
   1604000   296.52704     -4.5169952      0              57.537862      2118.4875    
   1605000   297.34795     -4.2782417      0              57.94841       2142.8235    
   1606000   299.83475     -5.7978868      0              56.949183      2064.3302    
   1607000   306.99651     -4.9657319      0              59.280095      2035.0641    
   1608000   300.04037     -5.2044767      0              57.585625      1939.9558    
   1609000   291.05406     -4.3919866      0              56.517529      2103.013     
   1610000   291.65927     -4.5577032      0              56.478466      2046.9041    
   1611000   311.86263     -4.6148269      0              60.649344      2109.0024    
   1612000   296.23961     -2.6312096      0              59.363498      2176.993     
   1613000   299.44337     -3.8277394      0              58.837426      2130.0861    
   1614000   302.21869     -5.1330367      0              58.112926      2105.4202    
   1615000   303.51385     -4.0990098      0              59.417994      2093.8523    
   1616000   298.97194     -3.9469634      0              58.619545      2148.784     
   1617000   294.07313     -4.1733577      0              57.367966      2102.5657    
   1618000   297.06941     -5.806123       0              56.362239      2048.5267    
   1619000   301.97882     -4.3206137      0              58.875151      2132.1237    
   1620000   312.64862     -4.7176231      0              60.711033      2146.4938    
   1621000   292.19994     -4.4330978      0              56.716219      2095.3618    
   1622000   294.27281     -6.2000832      0              55.383027      1898.9123    
   1623000   300.4069      -3.6683978      0              59.198407      2170.1814    
   1624000   297.84229     -5.417402       0              56.912702      2078.9451    
   1625000   298.86817     -4.2717762      0              58.273015      2088.8529    
   1626000   296.44313     -4.8834106      0              57.153887      2085.9022    
   1627000   300.87051     -3.1716376      0              59.792189      2218.4947    
   1628000   297.53377     -3.1660463      0              59.099493      2236.7683    
   1629000   296.20989     -3.5067711      0              58.481717      2092.8757    
   1630000   300.54643     -4.1135081      0              58.782498      2126.2763    
   1631000   302.0762      -4.1709133      0              59.04523       2177.0519    
   1632000   297.59129     -5.6557661      0              56.621811      2036.8613    
   1633000   297.38624     -4.4239508      0              57.810715      2170.8334    
   1634000   298.79967     -4.9488155      0              57.581641      2025.0046    
   1635000   292.97454     -4.0712402      0              57.240178      2176.7833    
   1636000   301.65856     -4.0258801      0              59.102862      2181.5675    
   1637000   303.28506     -4.0534163      0              59.415709      2118.1482    
   1638000   300.03627     -5.0111374      0              57.778105      2033.6578    
   1639000   299.1737      -4.9748135      0              57.633918      2111.4504    
   1640000   293.87355     -5.0324372      0              56.46712       1995.3006    
   1641000   293.51029     -5.0146964      0              56.40884       2081.2745    
   1642000   302.47963     -4.1880859      0              59.112484      2114.1311    
   1643000   304.09105     -4.6086896      0              59.029106      2178.9396    
   1644000   296.27446     -4.9095071      0              57.092493      2209.1272    
   1645000   297.37431     -4.2854993      0              57.946669      2106.9416    
   1646000   297.86447     -3.0529746      0              59.281771      2163.9989    
   1647000   299.43394     -5.997124       0              56.666068      2003.4785    
   1648000   312.6196      -5.4521382      0              59.970446      2085.1859    
   1649000   309.39925     -3.468095       0              61.280558      2161.538     
   1650000   293.84124     -4.1628469      0              57.329949      2134.506     
   1651000   299.16125     -5.037206       0              57.568919      2078.0673    
   1652000   296.50207     -5.1616566      0              56.887977      2103.3912    
   1653000   293.72979     -5.0446382      0              56.424835      2144.3498    
   1654000   300.4373      -4.6423154      0              58.230852      2051.889     
   1655000   294.86718     -6.1797585      0              55.527738      2057.1533    
   1656000   299.79708     -5.1227452      0              57.616442      2051.4426    
   1657000   294.97        -5.1434993      0              56.585514      1962.3805    
   1658000   304.40096     -4.3725631      0              59.330088      2168.3432    
   1659000   299.24307     -3.5948572      0              59.02839       2216.2174    
   1660000   294.09033     -3.8717334      0              57.67319       2136.2134    
   1661000   289.36711     -5.6906801      0              54.865805      2069.3316    
   1662000   298.60737     -4.8537723      0              57.636442      2026.2036    
   1663000   294.56471     -4.6139362      0              57.030262      2098.2116    
   1664000   297.1727      -4.5328144      0              57.657163      2119.9155    
   1665000   304.60326     -4.6478983      0              59.097089      2014.3349    
   1666000   300.65473     -4.9656695      0              57.952999      2104.8914    
   1667000   301.99227     -5.1474561      0              58.051123      2167.8818    
   1668000   295.34964     -6.1122598      0              55.696202      2053.7907    
   1669000   298.36746     -5.7186508      0              56.721357      2081.776     
   1670000   292.94624     -4.366522       0              56.938975      2173.6265    
   1671000   297.44635     -4.3807027      0              57.866542      2117.2902    
   1672000   298.98158     -4.0704718      0              58.498053      2119.4991    
   1673000   302.51403     -4.8467193      0              58.46105       2065.3874    
   1674000   298.55735     -4.0324597      0              58.447285      2039.5208    
   1675000   302.72718     -3.3538242      0              59.99855       2166.9482    
   1676000   298.39202     -4.0504099      0              58.394736      2062.6343    
   1677000   301.66648     -5.5663472      0              57.564054      2004.5242    
   1678000   307.31859     -3.0055668      0              61.307662      2076.7693    
   1679000   314.43199     -4.1198864      0              61.681979      2126.7226    
   1680000   305.16542     -3.7656961      0              60.096936      2261.2782    
   1681000   308.02317     -4.0256694      0              60.43501       2129.5543    
   1682000   297.03954     -4.3592043      0              57.802906      2240.7403    
   1683000   305.00061     -4.6039005      0              59.224241      2079.6922    
   1684000   290.07627     -2.0703435      0              58.634548      2171.5993    
   1685000   307.04058     -3.8840739      0              60.370976      2046.2061    
   1686000   299.43401     -3.614289       0              59.048918      2163.4592    
   1687000   294.27819     -5.2926273      0              56.291609      2011.4442    
   1688000   292.41696     -4.491527       0              56.703206      2055.5193    
   1689000   294.31108     -4.2862227      0              57.304896      2098.3947    
   1690000   300.51363     -4.4902543      0              58.398887      2085.4095    
   1691000   305.67777     -3.95507        0              60.014781      2166.0422    
   1692000   300.77111     -3.919456       0              59.023568      2163.7233    
   1693000   307.63694     -4.5659195      0              59.813932      2072.8909    
   1694000   293.8627      -3.6658641      0              57.831422      2157.6718    
   1695000   298.59741     -4.9642326      0              57.523897      2049.958     
   1696000   304.1647      -4.6473755      0              59.005833      2146.3087    
   1697000   298.43918     -3.9920031      0              58.463014      2114.0648    
   1698000   294.44301     -6.6072942      0              55.011434      2038.667     
   1699000   306.65171     -3.9876186      0              60.186052      2137.2341    
   1700000   297.92304     -5.1148936      0              57.232108      2095.8615    
   1701000   306.81351     -4.2825339      0              59.924996      2180.6216    
   1702000   294.59364     -4.1536401      0              57.496611      2180.4385    
   1703000   299.19815     -2.8034184      0              59.81043       2168.4247    
   1704000   299.96382     -4.1023067      0              58.671774      2092.0278    
   1705000   299.76176     -3.4861463      0              59.245649      2075.4341    
   1706000   301.68625     -4.8388981      0              58.295639      2104.7838    
   1707000   304.72968     -5.2522221      0              58.519221      2039.2102    
   1708000   294.13924     -3.4090585      0              58.1461        2057.5227    
   1709000   297.90524     -3.6759498      0              58.667329      2145.2574    
   1710000   315.95665     -6.1826106      0              59.938325      2033.3196    
   1711000   300.85404     -4.5527993      0              58.40758       2040.8723    
   1712000   300.12822     -5.3147953      0              57.49369       1983.8273    
   1713000   308.05657     -4.9707156      0              59.496954      2036.6954    
   1714000   296.11143     -4.0642733      0              57.903611      2066.6358    
   1715000   296.3682      -4.558473       0              57.463145      2090.7095    
   1716000   301.27885     -4.3145668      0              58.734714      2007.9294    
   1717000   301.998       -4.8786473      0              58.321131      2062.9585    
   1718000   298.96939     -5.28283        0              57.283145      2073.7103    
   1719000   300.68722     -4.4789499      0              58.446519      2174.3895    
   1720000   289.39248     -4.8072228      0              55.75457       2085.4634    
   1721000   301.43971     -4.7866558      0              58.296287      2049.0964    
   1722000   295.16978     -5.6591912      0              56.11163       2158.8549    
   1723000   295.26504     -5.3951278      0              56.39563       2033.7451    
   1724000   307.17816     -4.92456        0              59.359281      2072.7254    
   1725000   307.20913     -4.3761639      0              59.914159      2135.8375    
   1726000   303.86639     -5.073232       0              58.517549      2096.8119    
   1727000   316.51211     -4.7727779      0              61.464399      2106.6371    
   1728000   290.87248     -5.6797642      0              55.191752      2073.4899    
   1729000   304.94873     -3.4220332      0              60.395251      2257.3246    
   1730000   291.45361     -4.7465551      0              56.246576      2058.3987    
   1731000   300.94517     -6.2002336      0              56.779217      2047.1323    
   1732000   305.01289     -4.6745305      0              59.156181      2116.2944    
   1733000   294.56577     -4.4434303      0              57.20099       2140.3236    
   1734000   296.84024     -4.9899885      0              57.130415      2042.5932    
   1735000   303.85959     -4.5685855      0              59.020771      2121.5905    
   1736000   304.6151      -4.1053849      0              59.642079      2186.8323    
   1737000   296.77072     -4.812457       0              57.293396      2093.9889    
   1738000   306.82663     -5.4424342      0              58.767843      2003.4135    
   1739000   292.73329     -4.6482139      0              56.612719      2072.8523    
   1740000   298.51524     -5.6517552      0              56.819179      2065.7111    
   1741000   300.78175     -4.9218989      0              58.023352      2136.8724    
   1742000   296.51476     -4.4386875      0              57.613602      2099.0554    
   1743000   298.46529     -4.9703965      0              57.490084      2069.3686    
   1744000   305.34914     -6.8532221      0              57.047856      2012.4278    
   1745000   309.26571     -4.3416198      0              60.379089      2120.1309    
   1746000   295.06873     -5.530115       0              56.219559      2064.7059    
   1747000   293.41131     -5.1814564      0              56.221366      2046.636     
   1748000   309.89138     -3.2331382      0              61.618506      2118.1256    
   1749000   298.10253     -4.5934836      0              57.791081      2175.4258    
   1750000   295.04284     -4.4724206      0              57.271836      2087.5488    
   1751000   302.24614     -3.9357093      0              59.315998      2149.3791    
   1752000   303.34883     -4.6144815      0              58.867988      2124.9612    
   1753000   303.09047     -4.4966303      0              58.931772      2058.7439    
   1754000   285.13086     -4.3008784      0              55.369078      2114.9721    
   1755000   299.8081      -5.2118693      0              57.529623      2036.2416    
   1756000   293.4712      -2.6791809      0              58.736175      2101.0198    
   1757000   297.90654     -4.1844341      0              58.159116      2126.5791    
   1758000   301.30629     -4.7297441      0              58.325279      2052.4487    
   1759000   309.04209     -5.461717       0              59.212192      2116.5903    
   1760000   306.28236     -5.1468173      0              58.949559      2163.4676    
   1761000   297.05979     -4.9728976      0              57.193451      2115.9623    
   1762000   306.4723      -3.7647724      0              60.371352      2223.0716    
   1763000   291.0662      -6.1128688      0              54.799189      1998.0138    
   1764000   298.88301     -3.6475598      0              58.900338      2249.4385    
   1765000   296.81667     -6.1295194      0              55.98595       2028.8748    
   1766000   313.94772     -4.327421       0              61.3731        2134.9186    
   1767000   294.21184     -5.093341       0              56.477011      2039.1395    
   1768000   298.14194     -4.5142508      0              57.878562      2090.5279    
   1769000   305.73924     -4.0654622      0              59.917253      2125.7604    
   1770000   304.79513     -5.8910742      0              57.894065      2015.8198    
   1771000   288.56377     -4.1087409      0              56.279628      2099.5367    
   1772000   298.72916     -5.5155889      0              57.000111      1990.6324    
   1773000   296.86164     -5.955498       0              56.169383      2136.1596    
   1774000   289.23365     -4.7548679      0              55.773687      2073.4564    
   1775000   302.57226     -4.7581303      0              58.561824      2166.8878    
   1776000   296.14441     -4.9747637      0              57.000022      1997.835     
   1777000   293.05567     -3.5464729      0              57.781924      2038.6927    
   1778000   300.78694     -4.4305777      0              58.515759      2081.0117    
   1779000   288.01218     -5.0778063      0              55.195129      2080.1117    
   1780000   301.78701     -4.2373042      0              58.918319      2160.4528    
   1781000   302.67326     -4.8580761      0              58.483014      2075.0824    
   1782000   305.19744     -4.7423439      0              59.126987      2147.4418    
   1783000   297.5243      -4.6520167      0              57.61154       1998.7961    
   1784000   295.59176     -6.1617023      0              55.697429      1981.3565    
   1785000   293.207       -4.532978       0              56.827089      2183.8105    
   1786000   295.53039     -5.2127199      0              56.633568      2033.0909    
   1787000   303.84089     -5.4994187      0              58.086025      2034.9958    
   1788000   321.32803     -4.2845726      0              62.960443      2195.0152    
   1789000   310.38084     -2.5009621      0              62.453112      2302.5216    
   1790000   298.4457      -5.924381       0              56.532         2035.9561    
   1791000   300.46546     -6.6310628      0              56.247997      2017.8129    
   1792000   294.74063     -3.1707653      0              58.510247      2217.6909    
   1793000   293.48155     -2.5305668      0              58.886956      2241.7421    
   1794000   301.39999     -4.8667951      0              58.207836      2072.987     
   1795000   292.56941     -5.7625215      0              55.464115      2015.7225    
   1796000   294.53232     -7.3974391      0              54.239979      1832.7445    
   1797000   307.95442     -4.5574874      0              59.888803      2085.7624    
   1798000   308.62225     -4.7821507      0              59.8039        2106.3711    
   1799000   303.3745      -3.6250996      0              59.862742      2068.7328    
   1800000   304.50447     -5.0758971      0              58.648415      2124.6641    
   1801000   304.86611     -4.8141486      0              58.985845      2112.6075    
   1802000   287.73358     -4.527261       0              55.687371      2044.4848    
   1803000   304.25503     -5.3369258      0              58.335185      2032.0102    
   1804000   296.37231     -4.3165389      0              57.70594       2090.8829    
   1805000   297.63967     -4.545951       0              57.741751      2057.7803    
   1806000   292.17826     -3.3299191      0              57.81486       2124.3711    
   1807000   307.13534     -3.9796663      0              60.295213      2125.9306    
   1808000   302.65121     -5.4611037      0              57.875373      2079.9791    
   1809000   309.60605     -4.6257041      0              60.166228      2094.2304    
   1810000   303.66446     -4.7766932      0              58.771828      2087.4857    
   1811000   301.1373      -4.6530345      0              58.366623      2069.1745    
   1812000   302.7421      -5.2486362      0              58.106862      2239.0786    
   1813000   287.22127     -5.3459077      0              54.761512      1923.536     
   1814000   305.09366     -5.2881702      0              58.559443      2165.368     
   1815000   290.17831     -4.4829644      0              56.243282      2059.8259    
   1816000   303.74896     -4.2348832      0              59.331323      2189.2438    
   1817000   297.22333     -4.2316243      0              57.968949      2042.5138    
   1818000   297.82114     -2.6731155      0              59.652562      2114.781     
   1819000   292.61575     -2.8334596      0              58.402874      2177.4581    
   1820000   305.09483     -4.9516339      0              58.896226      2095.927     
   1821000   291.19209     -4.9953831      0              55.943019      2030.8723    
   1822000   291.62245     -4.1070921      0              56.921372      2141.8875    
   1823000   294.57191     -3.8689749      0              57.776729      2128.9606    
   1824000   294.73231     -5.7190822      0              55.96019       2100.8635    
   1825000   305.29786     -3.9634904      0              59.926857      2117.8267    
   1826000   293.99898     -4.6779515      0              56.847855      2123.228     
   1827000   293.71562     -5.9139791      0              55.552527      2014.3284    
   1828000   303.65622     -5.5211843      0              58.025614      2157.4499    
   1829000   299.59044     -4.3008326      0              58.395111      2106.1143    
   1830000   301.68091     -3.8403213      0              59.293098      2111.0741    
   1831000   291.37645     -3.7149452      0              57.262039      2058.9515    
   1832000   298.76452     -3.7565964      0              58.766505      2008.7569    
   1833000   301.36514     -5.8942027      0              57.173135      2044.7525    
   1834000   305.22781     -4.2581112      0              59.617576      2076.4656    
   1835000   299.9074      -4.2381807      0              58.524093      2139.8222    
   1836000   304.51267     -5.7171126      0              58.008916      2069.314     
   1837000   306.74226     -4.517982       0              59.674638      2139.6362    
   1838000   300.80093     -4.5601987      0              58.389066      2127.4512    
   1839000   298.07531     -1.973347       0              60.405521      2177.9878    
   1840000   304.78501     -3.4599966      0              60.323026      2067.2251    
   1841000   294.27904     -4.3799599      0              57.204456      2022.8832    
   1842000   304.04751     -5.0612881      0              58.567395      1986.0404    
   1843000   293.82213     -4.6633015      0              56.825496      2091.3401    
   1844000   303.64869     -4.0197         0              59.525522      2100.1479    
   1845000   286.9601      -4.9805684      0              55.072196      2005.3987    
   1846000   300.08859     -5.0892719      0              57.710919      2058.123     
   1847000   304.71587     -3.7653903      0              60.003163      2145.7314    
   1848000   305.34134     -3.4476437      0              60.451804      2247.9756    
   1849000   298.30754     -3.7380746      0              58.689393      2129.1002    
   1850000   299.276       -4.1771164      0              58.453022      2158.4934    
   1851000   296.08729     -4.2113328      0              57.751499      2141.1993    
   1852000   295.88235     -4.8673818      0              57.052562      2049.6222    
   1853000   301.62873     -4.9337388      0              58.188761      2120.0471    
   1854000   292.576       -4.295389       0              56.932627      2142.6007    
   1855000   314.21074     -2.8192409      0              62.936324      2145.8914    
   1856000   305.74716     -6.1690235      0              57.81535       2050.3528    
   1857000   303.77327     -5.9364739      0              57.634818      2010.9785    
   1858000   301.24237     -4.0075162      0              59.034129      2191.1963    
   1859000   311.02821     -5.2104065      0              59.879143      2150.6222    
   1860000   303.2745      -5.349478       0              58.117436      2069.9748    
   1861000   311.06104     -4.5317994      0              60.564621      2108.8263    
   1862000   307.38312     -3.95251        0              60.374225      2145.1173    
   1863000   289.16386     -5.0454644      0              55.468485      2031.2342    
   1864000   293.68397     -4.1074125      0              57.352471      2003.5163    
   1865000   284.67177     -4.4217824      0              55.152099      2208.6916    
   1866000   306.80264     -5.0834819      0              59.121775      2101.4264    
   1867000   305.48105     -3.3525         0              60.576184      2135.6133    
   1868000   290.2411      -5.958863       0              54.780524      2078.7096    
   1869000   300.07897     -4.7306392      0              58.06754       2069.4351    
   1870000   301.33482     -4.2658751      0              58.795119      2082.6388    
   1871000   295.58978     -3.9156177      0              57.943098      2027.162     
   1872000   298.47808     -5.7040707      0              56.759085      2083.3698    
   1873000   285.87298     -4.00107        0              55.82419       2095.5354    
   1874000   308.264       -4.7426496      0              59.768429      2072.51      
   1875000   298.72441     -1.9514857      0              60.56322       2370.0628    
   1876000   306.72872     -3.0794281      0              61.110358      2215.4549    
   1877000   304.68589     -5.6979399      0              58.064339      2023.4206    
   1878000   304.01629     -3.2099725      0              60.412177      2148.0713    
   1879000   296.77726     -3.9234269      0              58.183797      2156.4856    
   1880000   304.56144     -4.7414141      0              58.99482       2139.1638    
   1881000   305.05255     -3.9967829      0              59.842228      2093.354     
   1882000   303.90493     -4.9599021      0              58.638943      2036.4594    
   1883000   313.30603     -3.812436       0              61.753798      2207.3024    
   1884000   303.88399     -4.4608069      0              59.133657      2037.5461    
   1885000   306.60232     -6.0800243      0              58.083309      2037.1255    
   1886000   302.31925     -4.8814575      0              58.385548      2149.3675    
   1887000   300.85268     -4.9041617      0              58.055932      2067.094     
   1888000   298.35989     -4.5817038      0              57.856719      2111.8311    
   1889000   296.34933     -4.2282369      0              57.789432      2161.2852    
   1890000   309.6624      -4.1172027      0              60.686521      2148.2498    
   1891000   303.84415     -3.9742509      0              59.611875      2102.0333    
   1892000   300.78683     -2.1948001      0              60.751514      2161.7183    
   1893000   303.52756     -5.8630895      0              57.656782      2002.763     
   1894000   307.78716     -4.8635616      0              59.547726      2009.97      
   1895000   295.88314     -3.7914019      0              58.128706      2170.068     
   1896000   304.39178     -6.450311       0              57.250418      2076.6188    
   1897000   303.40272     -3.7757703      0              59.717976      2102.522     
   1898000   291.23618     -6.3258445      0              54.621784      1997.902     
   1899000   307.84893     -4.6484642      0              59.775752      2131.9804    
   1900000   300.33441     -5.242503       0              57.609133      2010.2922    
   1901000   296.93579     -4.2238339      0              57.916565      2056.1955    
   1902000   301.38465     -4.0851523      0              58.98627       2101.01      
   1903000   306.63171     -4.5350303      0              59.634455      2076.0482    
   1904000   290.75855     -5.2353735      0              55.6123        2062.9808    
   1905000   302.65275     -3.4553188      0              59.881481      2075.1129    
   1906000   301.46617     -3.1324865      0              59.955994      2200.9451    
   1907000   293.68723     -4.2678198      0              57.192746      2180.3044    
   1908000   310.98798     -3.3586768      0              61.722454      2159.5787    
   1909000   303.724       -4.3150848      0              59.245898      2166.0301    
   1910000   297.67727     -4.8140305      0              57.481539      1983.3754    
   1911000   292.71026     -5.297282       0              55.95883       2057.785     
   1912000   302.38023     -4.8940869      0              58.385681      2129.8308    
   1913000   295.54929     -5.9379665      0              55.912277      2043.1119    
   1914000   305.75907     -3.6700291      0              60.316836      2155.783     
   1915000   290.19429     -4.2920217      0              56.437568      2066.1972    
   1916000   302.80711     -3.5687333      0              59.800369      2159.0548    
   1917000   309.42231     -5.0703545      0              59.683125      2191.6279    
   1918000   307.30202     -3.6737561      0              60.636007      2194.0185    
   1919000   298.30657     -3.798032       0              58.629232      2129.5545    
   1920000   299.89633     -5.368668       0              57.39129       2043.0561    
   1921000   290.79806     -4.3930081      0              56.462935      2087.7037    
   1922000   306.62068     -5.9619196      0              58.205256      2144.9875    
   1923000   298.05884     -5.4344769      0              56.940945      1992.3565    
   1924000   302.51159     -5.9286966      0              57.378563      2090.3257    
   1925000   298.92252     -5.209726       0              57.346441      2112.0903    
   1926000   301.94386     -3.2839466      0              59.904502      2070.5172    
   1927000   302.74872     -3.8570146      0              59.499868      2082.0305    
   1928000   296.54464     -5.7274605      0              56.331082      2110.6872    
   1929000   297.93479     -4.334274       0              58.015188      2157.4543    
   1930000   301.52159     -5.9222508      0              57.177828      2009.0192    
   1931000   310.89931     -5.1054511      0              59.957123      2042.0177    
   1932000   303.88623     -4.2579682      0              59.336965      2157.3967    
   1933000   298.33655     -4.3212399      0              58.1123        2092.9736    
   1934000   304.66947     -4.9406337      0              58.818208      2041.1841    
   1935000   304.76716     -4.2483034      0              59.530983      2038.6328    
   1936000   287.39137     -3.2706098      0              56.872408      2113.86      
   1937000   296.08345     -4.2365476      0              57.725481      2057.7545    
   1938000   304.89165     -4.8204372      0              58.984901      2050.1121    
   1939000   301.68159     -3.9629465      0              59.170617      2182.7809    
   1940000   296.30987     -5.2315293      0              56.777881      2047.1437    
   1941000   288.11734     -3.6752684      0              56.619674      2170.1331    
   1942000   315.2947      -4.5543542      0              61.428054      2123.7967    
   1943000   301.21968     -4.247676       0              58.789221      2172.0313    
   1944000   298.90007     -4.4699413      0              58.081527      2213.3234    
   1945000   303.11833     -3.8276237      0              59.606608      2098.8627    
   1946000   300.44631     -3.8134247      0              59.061627      2130.6089    
   1947000   296.25664     -5.4709315      0              56.52734       2019.5112    
   1948000   302.79518     -3.0403131      0              60.326293      2051.4084    
   1949000   304.25338     -3.2615056      0              60.41026       2033.2396    
   1950000   303.25802     -4.9725011      0              58.490964      2051.1402    
   1951000   292.90712     -5.3844977      0              55.912813      2067.2291    
   1952000   305.27568     -4.5591427      0              59.326563      2092.4479    
   1953000   294.8072      -4.0020476      0              57.692897      2086.0204    
   1954000   297.04876     -3.6358788      0              58.528161      2050.8855    
   1955000   296.27058     -5.4542074      0              56.54698       2122.9661    
   1956000   301.53747     -3.362575       0              59.740828      2098.8196    
   1957000   301.2844      -3.1367536      0              59.913688      2173.9859    
   1958000   295.14181     -3.1406967      0              58.624271      2038.2436    
   1959000   295.30857     -6.138374       0              55.661493      2085.3803    
   1960000   302.20109     -5.7978951      0              57.444383      2020.4788    
   1961000   300.267       -3.1419776      0              59.69555       2103.4077    
   1962000   294.52196     -3.9702838      0              57.664966      2037.2257    
   1963000   306.17418     -4.2026292      0              59.871107      2138.4049    
   1964000   301.23444     -4.429913       0              58.610073      2107.9215    
   1965000   298.62534     -2.7145199      0              59.779455      2209.4799    
   1966000   300.91023     -3.7243186      0              59.24782       2107.7747    
   1967000   300.07754     -4.1846844      0              58.613194      2108.4434    
   1968000   312.85935     -3.4119663      0              62.060791      2150.1227    
   1969000   309.61005     -5.1975614      0              59.595206      2032.974     
   1970000   295.96892     -4.7213551      0              57.216705      2030.0116    
   1971000   303.45626     -3.5470402      0              59.957912      2124.7322    
   1972000   314.95067     -4.2590643      0              61.651348      2129.6694    
   1973000   294.62356     -5.550544       0              56.105968      2077.4764    
   1974000   300.19915     -5.4848032      0              57.338526      1997.4925    
   1975000   304.85345     -4.8234145      0              58.973929      2028.611     
   1976000   304.17589     -4.6820837      0              58.973465      2075.8214    
   1977000   291.45793     -3.2388284      0              57.755206      2042.8069    
   1978000   300.35262     -5.3120088      0              57.543437      2150.5998    
   1979000   294.76253     -4.0289263      0              57.65667       2119.4102    
   1980000   304.17914     -5.1103554      0              58.545875      2068.8489    
   1981000   310.88783     -4.4396906      0              60.620482      2098.0794    
   1982000   300.22245     -4.5166593      0              58.311545      2172.4252    
   1983000   300.67147     -3.7192058      0              59.202966      2135.0795    
   1984000   298.40325     -3.7991738      0              58.648324      2076.9858    
   1985000   290.9557      -5.5892491      0              55.299684      2039.9692    
   1986000   299.41586     -5.2209775      0              57.43843       2109.7249    
   1987000   299.57569     -5.3242722      0              57.368584      2130.1278    
   1988000   304.49384     -1.7774613      0              61.944626      2262.8389    
   1989000   311.52461     -3.9309085      0              61.262524      2144.0611    
   1990000   298.87737     -3.7701706      0              58.776546      2071.4326    
   1991000   299.7927      -4.8535526      0              57.884718      2088.3081    
   1992000   299.01009     -3.4107508      0              59.163741      2213.1749    
   1993000   301.83914     -4.9109711      0              58.255562      2087.2078    
   1994000   297.15348     -4.2460697      0              57.939885      2003.0292    
   1995000   306.91048     -4.667229       0              59.560594      2111.4202    
   1996000   309.68102     -3.6431947      0              61.164426      2180.8213    
   1997000   303.85649     -4.842004       0              58.746704      2030.4135    
   1998000   296.53423     -4.2620819      0              57.794282      2116.6246    
   1999000   298.3127      -6.0479719      0              56.380576      2071.5608    
   2000000   302.26148     -3.8440531      0              59.410864      2213.6255    
   2000101   302.57987     -3.8345322      0              59.487014      2222.7846    
Loop time of 48425.9 on 16 procs for 2000000 steps with 1620 atoms

Performance: 1.784 ns/day, 13.452 hours/ns, 41.300 timesteps/s
88.7% CPU use with 16 MPI tasks x 1 OpenMP threads

MPI task timing breakdown:
Section |  min time  |  avg time  |  max time  |%varavg| %total
---------------------------------------------------------------
Pair    | 9340.8     | 10846      | 12302      |1233.5 | 22.40
Bond    | 1.3665     | 1.704      | 2.0562     |  16.6 |  0.00
Neigh   | 14.805     | 16.506     | 18.333     |  39.5 |  0.03
Comm    | 22396      | 23378      | 24400      | 483.7 | 48.28
Output  | 50.604     | 51.169     | 51.642     |   5.8 |  0.11
Modify  | 9058.1     | 11008      | 12952      |1844.2 | 22.73
Other   |            | 3124       |            |       |  6.45

Nlocal:         101.25 ave         111 max          95 min
Histogram: 1 3 1 5 2 2 0 1 0 1
Nghost:        5063.75 ave        5093 max        5022 min
Histogram: 1 0 1 0 3 3 5 0 0 3
Neighs:        51677.2 ave       60970 max       46244 min
Histogram: 2 3 1 4 1 3 1 0 0 1

Total # of neighbors = 826836
Ave neighs/atom = 510.39259
Ave special neighs/atom = 0
Neighbor list builds = 10413
Dangerous builds = 0
comm_modify cutoff 27.58
compute myRDF all rdf 1129 cutoff 22.58
fix 2 all ave/time 1 1 1 c_myRDF[*] file ljg2_nvt_51rdf.rdf mode vector
run 0 pre yes post no
Generated 0 of 0 mixed pair_coeff terms from geometric mixing rule
WARNING: Compute rdf cutoff less than neighbor cutoff - forcing a needless neighbor list build (src/compute_rdf.cpp:179)
Neighbor list info ...
  update every 1 steps, delay 0 steps, check yes
  max neighbors/atom: 200000, page size: 2000000000
  master list distance cutoff = 27
  ghost atom cutoff = 27.58
  binsize = 13.5, bins = 4 5 4
  4 neighbor lists, perpetual/occasional/extra = 3 1 0
  (1) pair lj/cut, perpetual
      attributes: half, newton on
      pair build: half/bin/newton
      stencil: half/bin/3d
      bin: standard
  (2) pair gauss/cut, perpetual, copy from (1)
      attributes: half, newton on
      pair build: copy
      stencil: none
      bin: none
  (3) pair gauss/cut, perpetual, copy from (1)
      attributes: half, newton on
      pair build: copy
      stencil: none
      bin: none
  (4) compute rdf, occasional
      attributes: half, newton on, cut 24.58
      pair build: half/bin/newton
      stencil: half/bin/3d
      bin: standard
Per MPI rank memory allocation (min/avg/max) = 3.053e+04 | 3.053e+04 | 3.053e+04 Mbytes
   Step          Temp          E_pair         E_mol          TotEng         Press     
   2000101   302.57987     -3.8345322      0              59.487014      2222.7846    
Loop time of 4.30406e-06 on 16 procs for 0 steps with 1620 atoms

uncompute myRDF
unfix 2
write_data ljg2_nvt_51/ca_md.data nocoeff nofix
System init for write_data ...
Generated 0 of 0 mixed pair_coeff terms from geometric mixing rule
Neighbor list info ...
  update every 1 steps, delay 0 steps, check yes
  max neighbors/atom: 200000, page size: 2000000000
  master list distance cutoff = 27
  ghost atom cutoff = 27.58
  binsize = 13.5, bins = 4 5 4
  3 neighbor lists, perpetual/occasional/extra = 3 0 0
  (1) pair lj/cut, perpetual
      attributes: half, newton on
      pair build: half/bin/newton
      stencil: half/bin/3d
      bin: standard
  (2) pair gauss/cut, perpetual, copy from (1)
      attributes: half, newton on
      pair build: copy
      stencil: none
      bin: none
  (3) pair gauss/cut, perpetual, copy from (1)
      attributes: half, newton on
      pair build: copy
      stencil: none
      bin: none
Total wall time: 13:27:17
