region box block 0 52.794504272175 0 54.794296100667 0 45.195295323908
units metal
dimension 3
boundary p p p
atom_style full
create_box 1 box
Created orthogonal box = (0 0 0) to (52.794504 54.794296 45.195295)
  2 by 4 by 2 MPI processor grid
create_atoms 1 random 1620 48 box
Created 1620 atoms
  using lattice units in orthogonal box = (0 0 0) to (52.794504 54.794296 45.195295)
  create_atoms CPU = 0.003 seconds
mass 1 40.078
pair_style hybrid/overlay lj/cut 25 gauss/cut 25 gauss/cut 25
pair_coeff 1 1 lj/cut 0.009507177838705264 3.7584971993521488
pair_coeff 1 1 gauss/cut 1 -0.0597999248039827 5.991246456844763 0.601172550524922
pair_coeff 1 1 gauss/cut 2 0.0726183915985775 5.919659952808235 0.9307156951487607
run 1
WARNING: No fixes with time integration, atoms won't move (src/verlet.cpp:60)
Generated 0 of 0 mixed pair_coeff terms from geometric mixing rule
Neighbor list info ...
  update every 1 steps, delay 10 steps, check yes
  max neighbors/atom: 2000, page size: 100000
  master list distance cutoff = 27
  ghost atom cutoff = 27
  binsize = 13.5, bins = 4 5 4
  3 neighbor lists, perpetual/occasional/extra = 3 0 0
  (1) pair lj/cut, perpetual
      attributes: half, newton on
      pair build: half/bin/newton
      stencil: half/bin/3d
      bin: standard
  (2) pair gauss/cut, perpetual, copy from (1)
      attributes: half, newton on
      pair build: copy
      stencil: none
      bin: none
  (3) pair gauss/cut, perpetual, copy from (1)
      attributes: half, newton on
      pair build: copy
      stencil: none
      bin: none
Per MPI rank memory allocation (min/avg/max) = 6.988 | 6.995 | 7.006 Mbytes
   Step          Temp          E_pair         E_mol          TotEng         Press     
         0   0              2.9109057e+14  0              2.9109057e+14  1.4268594e+16
         1   0              2.9109057e+14  0              2.9109057e+14  1.4268594e+16
Loop time of 0.0123653 on 16 procs for 1 steps with 1620 atoms

Performance: 6.987 ns/day, 3.435 hours/ns, 80.871 timesteps/s
99.6% CPU use with 16 MPI tasks x 1 OpenMP threads

MPI task timing breakdown:
Section |  min time  |  avg time  |  max time  |%varavg| %total
---------------------------------------------------------------
Pair    | 0.0053302  | 0.0075066  | 0.011979   |   1.6 | 60.71
Bond    | 8.15e-07   | 9.1431e-07 | 1.166e-06  |   0.0 |  0.01
Neigh   | 0          | 0          | 0          |   0.0 |  0.00
Comm    | 0.00028282 | 0.0047544  | 0.0069318  |   2.0 | 38.45
Output  | 5.3827e-05 | 6.0483e-05 | 6.4876e-05 |   0.0 |  0.49
Modify  | 1.293e-06  | 1.4205e-06 | 1.804e-06  |   0.0 |  0.01
Other   |            | 4.154e-05  |            |       |  0.34

Nlocal:         101.25 ave         117 max          82 min
Histogram: 1 0 1 2 2 4 3 0 2 1
Nghost:           5047 ave        5174 max        4915 min
Histogram: 1 1 1 3 3 2 1 2 0 2
Neighs:        51702.8 ave       60132 max       38370 min
Histogram: 1 0 0 1 3 2 4 1 2 2

Total # of neighbors = 827244
Ave neighs/atom = 510.64444
Ave special neighs/atom = 0
Neighbor list builds = 0
Dangerous builds = 0
thermo 1000
neighbor 2.0 bin
neigh_modify every 1 delay 0 check yes one 200000 page 2000000000
minimize 0.0 1.0e-8 100 1000
Generated 0 of 0 mixed pair_coeff terms from geometric mixing rule
Neighbor list info ...
  update every 1 steps, delay 0 steps, check yes
  max neighbors/atom: 200000, page size: 2000000000
  master list distance cutoff = 27
  ghost atom cutoff = 27
  binsize = 13.5, bins = 4 5 4
  3 neighbor lists, perpetual/occasional/extra = 3 0 0
  (1) pair lj/cut, perpetual
      attributes: half, newton on
      pair build: half/bin/newton
      stencil: half/bin/3d
      bin: standard
  (2) pair gauss/cut, perpetual, copy from (1)
      attributes: half, newton on
      pair build: copy
      stencil: none
      bin: none
  (3) pair gauss/cut, perpetual, copy from (1)
      attributes: half, newton on
      pair build: copy
      stencil: none
      bin: none
Per MPI rank memory allocation (min/avg/max) = 2.29e+04 | 2.29e+04 | 2.29e+04 Mbytes
   Step          Temp          E_pair         E_mol          TotEng         Press     
         1   0              2.9109057e+14  0              2.9109057e+14  1.4268594e+16
       101   0             -47.788404      0             -47.788404      772.29524    
Loop time of 1.14526 on 16 procs for 100 steps with 1620 atoms

99.9% CPU use with 16 MPI tasks x 1 OpenMP threads

Minimization stats:
  Stopping criterion = max iterations
  Energy initial, next-to-last, final = 
       291090567467862  -47.5464816277413   -47.788403868247
  Force two-norm initial, final = 2.7689012e+16 0.48747003
  Force max component initial, final = 1.6102971e+16 0.045669154
  Final line search alpha, max atom move = 1 0.045669154
  Iterations, force evaluations = 100 130

MPI task timing breakdown:
Section |  min time  |  avg time  |  max time  |%varavg| %total
---------------------------------------------------------------
Pair    | 0.68751    | 0.94007    | 1.082      |  10.0 | 82.08
Bond    | 0.00010291 | 0.00010682 | 0.00011262 |   0.0 |  0.01
Neigh   | 0.0088758  | 0.011192   | 0.012474   |   0.8 |  0.98
Comm    | 0.046171   | 0.18935    | 0.44415    |  22.5 | 16.53
Output  | 3.2098e-05 | 3.2491e-05 | 3.306e-05  |   0.0 |  0.00
Modify  | 0          | 0          | 0          |   0.0 |  0.00
Other   |            | 0.004512   |            |       |  0.39

Nlocal:         101.25 ave         112 max          81 min
Histogram: 1 0 0 1 1 1 4 5 1 2
Nghost:        5047.81 ave        5162 max        4908 min
Histogram: 1 1 1 2 2 2 0 5 0 2
Neighs:        51694.6 ave       59883 max       38080 min
Histogram: 1 0 0 1 2 3 3 2 3 1

Total # of neighbors = 827113
Ave neighs/atom = 510.56358
Ave special neighs/atom = 0
Neighbor list builds = 7
Dangerous builds = 0
timestep 0.0005
fix 1 all nvt temp 300.0 300.0 $(100.0*dt)
fix 1 all nvt temp 300.0 300.0 0.050000000000000002776
fix removeMomentum all momentum 1 linear 1 1 1
dump 1 all custom 1000 ljg2_nvt_48/ca.traj id mol type mass x y z
dump_modify 1 sort id
run 2000000
Generated 0 of 0 mixed pair_coeff terms from geometric mixing rule
Per MPI rank memory allocation (min/avg/max) = 2.289e+04 | 2.289e+04 | 2.289e+04 Mbytes
   Step          Temp          E_pair         E_mol          TotEng         Press     
       101   0             -47.788404      0             -47.788404      772.29524    
      1000   180.74476     -44.010643      0             -6.1857941      1191.9277    
      2000   290.87362     -12.733696      0              48.138058      1618.5019    
      3000   292.46799     -7.2924609      0              53.912952      2030.0047    
      4000   288.96346     -4.4600335      0              56.011977      2019.3367    
      5000   302.45203     -3.9617734      0              59.33302       2056.608     
      6000   293.6997      -4.5347495      0              56.928425      2059.3771    
      7000   295.70766     -5.0058937      0              56.877492      2092.0799    
      8000   306.68015     -5.2595888      0              58.920033      2076.127     
      9000   299.61795     -4.1159901      0              58.585709      2147.2456    
     10000   298.96712     -3.3798162      0              59.185683      2185.7775    
     11000   307.02584     -3.9408711      0              60.311093      2020.344     
     12000   299.66347     -4.1860998      0              58.525127      1969.8115    
     13000   295.6407      -4.5076707      0              57.361702      2229.8439    
     14000   295.42499     -5.361743       0              56.462487      2116.9015    
     15000   300.11562     -3.8296145      0              58.976233      2278.8237    
     16000   306.96267     -5.0774806      0              59.161265      2131.3234    
     17000   299.36731     -3.8828115      0              58.766437      1998.1291    
     18000   298.89293     -5.7178332      0              56.832141      1959.73      
     19000   302.3381      -3.0193217      0              60.251631      2166.06      
     20000   296.24661     -4.4965443      0              57.499628      2022.1979    
     21000   291.37856     -5.7280035      0              55.249422      1951.5136    
     22000   287.29009     -5.9476876      0              54.174134      2036.607     
     23000   299.7272      -4.4868713      0              58.237692      2170.2502    
     24000   293.58497     -2.9310717      0              58.508094      2085.2104    
     25000   296.79288     -4.5724194      0              57.538072      2091.3853    
     26000   303.96728     -6.0384254      0              57.573469      2077.4355    
     27000   296.0306      -5.979002       0              55.971965      2038.4296    
     28000   300.34614     -6.2683034      0              56.585786      1996.9449    
     29000   295.87659     -4.7186684      0              57.200069      2095.7661    
     30000   302.98104     -2.7971834      0              60.608318      2144.8083    
     31000   306.81817     -3.8896944      0              60.318811      2081.9676    
     32000   288.19169     -5.3719877      0              54.938514      2090.019     
     33000   302.6261      -4.3857879      0              58.945434      2013.5546    
     34000   289.4406      -5.0369817      0              55.534882      2047.5824    
     35000   300.40447     -5.2190464      0              57.64725       2041.7757    
     36000   302.12892     -4.4324712      0              58.794705      2113.7184    
     37000   303.78679     -4.7853381      0              58.788784      2056.8347    
     38000   307.7012      -5.1628197      0              59.23048       2073.3993    
     39000   301.67735     -3.6831566      0              59.449519      2067.7976    
     40000   288.7081      -2.8775744      0              57.540998      2116.1355    
     41000   293.76755     -4.7566729      0              56.7207        2115.8091    
     42000   296.61142     -4.8990751      0              57.173442      2062.8042    
     43000   306.64176     -5.1756152      0              58.995973      2115.5127    
     44000   297.91356     -5.6133011      0              56.731718      2033.3849    
     45000   301.81636     -5.7666704      0              57.395096      2044.7187    
     46000   310.09575     -4.1201335      0              60.774278      2130.4       
     47000   305.28927     -4.4859817      0              59.402567      2137.2959    
     48000   292.67748     -3.9732256      0              57.276027      2095.7392    
     49000   305.03494     -5.0801524      0              58.755173      2091.5277    
     50000   298.00653     -4.0631587      0              58.301315      2116.8106    
     51000   310.32083     -3.7358318      0              61.205683      2037.9841    
     52000   301.87487     -5.2204023      0              57.953608      2124.1649    
     53000   306.80874     -3.7472995      0              60.459232      2023.1512    
     54000   295.91353     -5.3676157      0              56.558853      2049.4425    
     55000   291.6298      -2.9196232      0              58.11038       2047.2662    
     56000   296.67395     -5.7705428      0              56.31506       1900.9703    
     57000   301.7172      -6.5376849      0              56.60333       2006.094     
     58000   309.74084     -4.2913783      0              60.52876       2153.3898    
     59000   306.51416     -4.2797459      0              59.865139      2082.5892    
     60000   300.73216     -4.5866739      0              58.348199      2098.1464    
     61000   293.49625     -5.4708395      0              55.949759      1924.7104    
     62000   308.5347      -7.1948028      0              57.372925      2094.0219    
     63000   298.62404     -4.7073739      0              57.786327      1997.9203    
     64000   301.37641     -4.5005907      0              58.569105      2079.726     
     65000   289.78732     -4.4952386      0              56.149184      2082.5172    
     66000   297.29324     -4.4415209      0              57.773682      2110.5288    
     67000   310.65496     -5.2605513      0              59.750888      2137.8431    
     68000   307.43824     -4.7874315      0              59.550837      2008.2503    
     69000   297.3707      -3.6357468      0              58.595666      2123.7438    
     70000   295.14182     -4.9150692      0              56.849901      2110.337     
     71000   293.91326     -5.3443516      0              56.163515      2042.2365    
     72000   298.65041     -5.2934114      0              57.20581       2108.2932    
     73000   301.92293     -3.3025463      0              59.881522      2135.9643    
     74000   300.15054     -4.4205595      0              58.392597      2079.3703    
     75000   291.50225     -4.0929718      0              56.910338      2109.427     
     76000   299.32838     -4.1995914      0              58.441509      2206.0843    
     77000   300.09091     -4.8960863      0              57.90459       2093.7616    
     78000   296.06492     -4.5801617      0              57.377988      2176.1642    
     79000   297.75074     -5.4174942      0              56.893451      2096.7411    
     80000   289.72752     -3.4967187      0              57.135189      2151.4447    
     81000   298.54073     -5.6921392      0              56.784129      2069.9842    
     82000   300.66787     -4.2788142      0              58.642604      2092.4942    
     83000   293.28494     -5.37823        0              55.998148      2100.3589    
     84000   289.88433     -4.7580939      0              55.90663       2098.546     
     85000   295.42456     -4.3840568      0              57.440083      2131.2587    
     86000   302.14546     -4.5493872      0              58.68125       2078.803     
     87000   302.22545     -5.052913       0              58.194464      2087.9719    
     88000   309.45103     -5.0260002      0              59.733489      2151.5392    
     89000   302.09261     -3.4745102      0              59.745066      2223.6248    
     90000   298.36154     -4.4565765      0              57.982191      2009.1486    
     91000   296.97976     -5.052168       0              57.097433      2167.6819    
     92000   309.35851     -3.9498606      0              60.790267      2027.3739    
     93000   297.8173      -4.6046951      0              57.720178      2137.5321    
     94000   303.26254     -3.2838999      0              60.180511      2160.7907    
     95000   296.48493     -4.1300763      0              57.915969      2140.0433    
     96000   295.53411     -3.6366588      0              58.210408      2081.2683    
     97000   307.32711     -3.3811251      0              60.933888      2063.0558    
     98000   295.16289     -4.6367896      0              57.13259       2037.625     
     99000   308.78957     -4.6354602      0              59.985604      2191.1474    
    100000   303.11127     -5.1338823      0              58.298871      2010.4505    
    101000   302.21313     -5.1218933      0              58.122906      2019.9418    
    102000   295.80774     -6.0585835      0              55.845746      2029.0475    
    103000   291.34426     -3.7968014      0              57.173445      2176.6108    
    104000   295.21696     -3.8057262      0              57.974969      2106.4636    
    105000   291.07438     -3.9946929      0              56.919075      2209.8425    
    106000   294.613       -4.6657848      0              56.988518      2057.8153    
    107000   302.57166     -4.8058364      0              58.513993      2048.026     
    108000   301.06066     -4.2545193      0              58.7491        2088.7418    
    109000   300.66426     -4.675447       0              58.245217      2105.8844    
    110000   309.08861     -3.1000044      0              61.583641      2200.2491    
    111000   298.80104     -4.2692962      0              58.261447      2124.5487    
    112000   299.44066     -4.5911098      0              58.073489      2065.8523    
    113000   294.92384     -4.5034809      0              57.215872      2132.3805    
    114000   304.76312     -5.6473555      0              58.131085      2033.4903    
    115000   295.71185     -5.0385065      0              56.845755      2132.713     
    116000   299.15105     -6.2204387      0              56.383553      1967.7485    
    117000   295.64634     -5.2381984      0              56.632355      2086.6103    
    118000   293.15136     -5.9126895      0              55.435733      2085.9046    
    119000   304.0635      -5.5333038      0              58.098726      2106.1149    
    120000   295.73088     -4.7900191      0              57.098226      2143.3009    
    121000   289.75814     -6.1664048      0              54.47191       1968.3417    
    122000   300.49473     -4.3237489      0              58.561436      2148.9686    
    123000   294.61806     -5.8201371      0              55.835226      2044.6544    
    124000   302.02133     -4.5495662      0              58.655094      2135.9745    
    125000   311.76875     -4.8133071      0              60.431217      2106.9789    
    126000   305.24172     -3.4747451      0              60.403853      2150.9462    
    127000   302.03476     -4.4217875      0              58.785684      2100.6004    
    128000   298.06584     -3.074391       0              59.302495      2156.9484    
    129000   300.43245     -4.1883852      0              58.683766      2106.9258    
    130000   288.69028     -4.475432       0              55.939411      2038.4416    
    131000   301.5784      -5.2207878      0              57.89118       2059.7564    
    132000   304.78044     -4.3075802      0              59.474484      2101.6416    
    133000   304.97007     -2.1173284      0              61.704421      2139.0529    
    134000   300.34357     -3.9799653      0              58.873586      2096.3711    
    135000   287.2723      -4.2604986      0              55.857601      1930.3647    
    136000   296.48671     -5.5953431      0              56.451075      1994.5184    
    137000   304.31213     -5.3272297      0              58.356831      2045.6052    
    138000   305.68422     -5.1994235      0              58.771777      2080.4309    
    139000   301.25634     -4.792675       0              58.251894      2085.1233    
    140000   302.3839      -5.0501863      0              58.23035       2043.8794    
    141000   301.82371     -2.3583541      0              60.804951      2179.9032    
    142000   291.21703     -3.7160658      0              57.227556      2237.9867    
    143000   298.50441     -4.6724689      0              57.796199      2050.0708    
    144000   293.60779     -6.4023549      0              55.041585      2053.5902    
    145000   309.87239     -4.4248869      0              60.422783      2156.025     
    146000   306.75682     -4.3624398      0              59.833227      2110.3435    
    147000   297.87813     -4.6952872      0              57.642317      2071.1959    
    148000   298.5665      -4.1210957      0              58.360566      2174.9153    
    149000   308.05338     -5.0781624      0              59.388839      2030.6829    
    150000   299.70635     -4.3465471      0              58.373652      2202.2217    
    151000   299.44227     -3.6184253      0              59.046509      2051.3782    
    152000   299.13257     -5.1386655      0              57.461458      1995.6579    
    153000   290.30283     -4.7156314      0              56.036672      2090.9405    
    154000   305.23304     -5.5140077      0              58.362774      1999.1483    
    155000   297.03898     -5.018672       0              57.143322      2016.4012    
    156000   299.56474     -4.8064297      0              57.884135      2158.0774    
    157000   305.27656     -6.0515937      0              57.834295      2041.0624    
    158000   303.2492      -4.4253603      0              59.03626       2148.7708    
    159000   301.1168      -4.5716507      0              58.443717      2064.8114    
    160000   299.43347     -4.2043267      0              58.458766      2026.8387    
    161000   298.90256     -5.6193524      0              56.932637      2099.4934    
    162000   297.04343     -2.92868        0              59.234245      2174.8521    
    163000   293.92344     -3.5094267      0              58.000572      2132.0691    
    164000   298.44051     -5.0295475      0              57.425746      2038.2019    
    165000   286.0441      -4.0265701      0              55.834501      2026.8251    
    166000   298.18267     -5.5465415      0              56.854794      2031.9365    
    167000   297.76766     -5.6990833      0              56.615403      2020.3137    
    168000   295.17241     -3.3333295      0              58.438043      2126.3562    
    169000   298.75557     -5.5831653      0              56.938062      1988.3314    
    170000   304.95547     -4.7296878      0              59.089006      1964.0957    
    171000   291.41983     -6.0154094      0              54.970651      2039.2382    
    172000   301.86348     -5.1680831      0              58.003544      2110.8049    
    173000   307.16571     -3.94608        0              60.335156      2152.4794    
    174000   296.02176     -5.2541158      0              56.695002      2063.9808    
    175000   309.15152     -6.5949004      0              58.10191       2093.4296    
    176000   300.11509     -4.7480215      0              58.057716      2079.1907    
    177000   298.34478     -4.719945       0              57.715316      2128.6783    
    178000   299.81418     -5.7106956      0              57.03207       2054.659     
    179000   307.63207     -4.8404896      0              59.538342      2181.6249    
    180000   308.89994     -4.9935482      0              59.650614      2151.7819    
    181000   298.59047     -5.3531893      0              57.133487      2001.8241    
    182000   295.31418     -4.8481664      0              56.952873      2122.407     
    183000   292.59059     -5.4446652      0              55.786404      1886.7398    
    184000   301.78681     -5.7057328      0              57.449849      1902.1229    
    185000   292.77457     -3.7267308      0              57.54284       1983.0878    
    186000   286.82449     -6.84356        0              53.180824      1966.144     
    187000   302.42318     -4.1438835      0              59.144872      2152.1567    
    188000   295.52521     -5.7499545      0              56.095249      2150.6537    
    189000   288.91398     -2.8224432      0              57.639215      2178.9823    
    190000   291.14043     -5.1499416      0              55.777649      2054.5765    
    191000   288.70885     -4.1045327      0              56.314196      1980.4027    
    192000   300.46895     -3.7258867      0              59.153905      2101.4427    
    193000   299.47716     -5.4442973      0              57.227938      1997.8455    
    194000   297.64791     -5.7324797      0              56.556946      2056.2234    
    195000   305.77874     -4.616705       0              59.374276      1989.8263    
    196000   296.56158     -2.1482267      0              59.91386       2112.841     
    197000   307.64907     -5.4771835      0              58.905205      2144.2206    
    198000   298.61458     -5.7144053      0              56.777318      2089.7687    
    199000   311.24493     -4.619391       0              60.515512      2029.2871    
    200000   297.71771     -4.3334576      0              57.970575      2028.6876    
    201000   309.69021     -3.8844224      0              60.925121      2114.4782    
    202000   302.92353     -5.7981152      0              57.59535       2068.0684    
    203000   283.86273     -4.1061728      0              55.298399      2100.7252    
    204000   310.05871     -6.30323        0              58.583431      2019.4502    
    205000   300.65309     -5.6699201      0              57.248406      2035.1722    
    206000   303.63077     -1.9490126      0              61.592459      2151.4134    
    207000   297.5448      -3.6077603      0              58.660086      2209.9422    
    208000   302.8074      -3.8861011      0              59.483062      2125.1129    
    209000   293.78164     -5.4911388      0              55.989184      2127.1774    
    210000   290.80525     -7.2907826      0              53.566665      2010.3528    
    211000   291.0079      -6.1106071      0              54.789249      2001.2813    
    212000   295.24785     -5.9067937      0              55.880365      2052.9175    
    213000   303.79647     -3.6083506      0              59.967798      2072.9453    
    214000   296.19972     -3.1865703      0              58.799788      2218.4203    
    215000   313.01711     -3.7472059      0              61.758566      2127.1304    
    216000   298.72834     -3.9679667      0              58.547563      2098.1836    
    217000   294.50818     -5.0547335      0              56.577635      2027.2002    
    218000   303.24563     -4.027031       0              59.433842      2117.0853    
    219000   293.34209     -5.983619       0              55.404717      2066.7863    
    220000   311.25014     -4.4195671      0              60.716426      2047.3473    
    221000   304.24017     -4.1442139      0              59.524787      2084.8891    
    222000   309.81168     -4.020966       0              60.813999      2168.522     
    223000   303.43103     -2.9682908      0              60.53138       2101.5511    
    224000   303.13168     -4.8879632      0              58.549063      2048.1048    
    225000   305.75195     -5.7361592      0              58.249217      2152.0165    
    226000   301.58917     -4.3413493      0              58.772872      2071.8301    
    227000   295.787       -6.1387667      0              55.761222      2081.7743    
    228000   301.24496     -4.2658352      0              58.776354      2096.7617    
    229000   298.47847     -3.7561838      0              58.707056      2156.9703    
    230000   304.93271     -3.2401311      0              60.573801      2219.9858    
    231000   298.46656     -4.6684066      0              57.79234       1999.4878    
    232000   296.87624     -4.0202016      0              58.107735      2148.5447    
    233000   292.10446     -3.5433538      0              57.585982      2094.895     
    234000   296.54108     -3.7880206      0              58.269777      2068.5826    
    235000   290.85277     -3.5570094      0              57.310382      2166.6364    
    236000   301.35715     -4.8801554      0              58.185511      2085.673     
    237000   303.84634     -5.241945       0              58.34464       2164.4629    
    238000   299.53813     -5.7921507      0              56.892845      2028.2381    
    239000   306.33212     -2.8210693      0              61.285721      2232.9238    
    240000   292.31829     -4.5531361      0              56.620949      1979.9786    
    241000   297.77326     -3.5080078      0              58.80765       2127.5771    
    242000   302.64139     -4.7224954      0              58.611927      2040.8576    
    243000   295.22025     -2.451952       0              59.329433      2254.7111    
    244000   290.00324     -1.8559408      0              58.833668      2147.429     
    245000   306.54799     -5.0884039      0              59.063561      2091.0486    
    246000   294.462       -4.0877495      0              57.534954      2091.7025    
    247000   292.16934     -4.1257603      0              57.017152      1969.268     
    248000   297.04956     -5.3659441      0              56.798264      2024.838     
    249000   293.82989     -4.8504155      0              56.640005      2109.6336    
    250000   295.31544     -3.5839623      0              58.217343      2024.3459    
    251000   307.46359     -4.4896339      0              59.853941      2047.5975    
    252000   296.82564     -5.0509634      0              57.066384      2065.5334    
    253000   295.96218     -4.445851       0              57.490797      2093.1702    
    254000   306.90266     -5.7793099      0              58.446878      2081.2154    
    255000   301.62631     -5.6396318      0              57.482362      2066.1206    
    256000   302.92503     -3.6769496      0              59.71683       2115.9339    
    257000   317.74882     -5.2976735      0              61.198314      2074.5611    
    258000   299.92197     -3.9322499      0              58.833072      2013.7179    
    259000   301.41083     -5.4456292      0              57.63127       2045.9994    
    260000   303.62987     -4.1154346      0              59.425849      2127.015     
    261000   292.06879     -3.7889821      0              57.332888      2073.6705    
    262000   297.45705     -4.0137049      0              58.235778      2190.3952    
    263000   294.69982     -3.9249085      0              57.747563      2016.1286    
    264000   297.92965     -4.6738938      0              57.674491      2050.2941    
    265000   295.94617     -5.6406717      0              56.292627      1986.34      
    266000   303.76221     -5.3598278      0              58.209152      2168.1657    
    267000   298.30384     -6.1512345      0              56.27546       2016.7931    
    268000   304.85167     -4.591291       0              59.20568       2195.5466    
    269000   301.20836     -2.6877634      0              60.346764      2208.1314    
    270000   313.7313      -5.6418445      0              60.013386      2184.8662    
    271000   300.05211     -4.6296611      0              58.162897      2039.7459    
    272000   302.33405     -5.4606975      0              57.809407      2117.0515    
    273000   301.41047     -5.979753       0              57.097072      1994.4051    
    274000   292.26634     -4.474976       0              56.688236      2006.0591    
    275000   300.18058     -4.4879083      0              58.331534      2115.2833    
    276000   297.59912     -4.391033       0              57.888182      2014.8044    
    277000   301.87402     -5.1408875      0              58.032944      2048.011     
    278000   288.77416     -4.1016148      0              56.330782      2176.1616    
    279000   300.56346     -5.3254581      0              57.574111      2106.0591    
    280000   289.67163     -4.0797001      0              56.540512      2039.86      
    281000   294.56232     -4.8711299      0              56.772567      2184.5007    
    282000   296.0544      -4.475765       0              57.480182      2093.6517    
    283000   298.97391     -4.6522898      0              57.914631      2096.7199    
    284000   299.71092     -5.5476427      0              57.173514      2090.0843    
    285000   294.25768     -3.7232806      0              57.856663      2051.6614    
    286000   291.50892     -4.0395891      0              56.965117      2093.4653    
    287000   298.67732     -4.5798032      0              57.925049      2101.8562    
    288000   301.21147     -5.9523051      0              57.082875      1986.5387    
    289000   294.8141      -6.6566681      0              55.039719      2001.8456    
    290000   302.21535     -6.0546493      0              57.190614      2092.6969    
    291000   299.78197     -5.3791356      0              57.356889      2026.9014    
    292000   299.10078     -5.4728685      0              57.120603      2047.9628    
    293000   291.37588     -3.4802855      0              57.496579      2103.5296    
    294000   302.49329     -4.5023164      0              58.801113      2130.6218    
    295000   316.42227     -4.7274496      0              61.490928      2106.832     
    296000   292.35761     -4.4686085      0              56.713705      2163.9873    
    297000   302.26172     -6.2700413      0              56.984925      2136.1432    
    298000   303.81921     -5.20859        0              58.372317      2127.6691    
    299000   294.0507      -4.4326691      0              57.10396       2056.1175    
    300000   294.74182     -5.6125974      0              56.068663      1953.9185    
    301000   309.18245     -4.9392963      0              59.763987      2116.6217    
    302000   297.05205     -3.7066201      0              58.458108      2102.0173    
    303000   307.77754     -5.2557455      0              59.153529      2109.8014    
    304000   305.27029     -4.2463841      0              59.638193      2127.2042    
    305000   298.37434     -4.0971111      0              58.344335      2080.7847    
    306000   310.16121     -4.1805444      0              60.727567      2218.6213    
    307000   299.56504     -5.9277379      0              56.76289       2130.2715    
    308000   300.5326      -5.9563097      0              56.9368        2134.1925    
    309000   301.96038     -4.9653076      0              58.226598      2008.4686    
    310000   299.17016     -6.0812264      0              56.526764      2042.814     
    311000   295.9148      -5.1627215      0              56.764012      2107.8358    
    312000   296.08458     -5.9011402      0              56.061124      2032.8097    
    313000   289.53799     -5.2365632      0              55.355681      2056.2564    
    314000   298.80015     -3.9900065      0              58.54055       2091.3241    
    315000   301.92641     -4.2092938      0              58.975504      2189.0337    
    316000   287.71804     -3.4135838      0              56.797796      2116.2744    
    317000   297.9597      -5.4054159      0              56.949259      2034.015     
    318000   303.8803      -4.9647838      0              58.628907      2011.6837    
    319000   294.52508     -4.4835536      0              57.152351      2151.6668    
    320000   293.38457     -4.5556047      0              56.841622      2016.8895    
    321000   299.04629     -5.4368184      0              57.145249      2093.4821    
    322000   294.19275     -5.6226245      0              55.943732      1995.9969    
    323000   289.46647     -5.7702942      0              54.806984      1969.125     
    324000   288.15852     -5.6557387      0              54.647822      2036.1426    
    325000   300.85393     -4.4975266      0              58.46283       2006.3742    
    326000   302.40571     -6.839462       0              56.445638      2079.1623    
    327000   301.29809     -4.0062009      0              59.047105      2141.2004    
    328000   301.81521     -5.6791898      0              57.482335      2021.6896    
    329000   294.28948     -4.3928177      0              57.193782      2076.9782    
    330000   300.81157     -4.8671525      0              58.08434       1991.1302    
    331000   310.10854     -4.2183144      0              60.678774      2150.2268    
    332000   307.86747     -3.6438791      0              60.784216      2146.2886    
    333000   306.07829     -3.6399954      0              60.413673      2141.7495    
    334000   296.25608     -4.8852066      0              57.112947      2098.2221    
    335000   303.19121     -4.8203868      0              58.629098      1971.8302    
    336000   300.71859     -3.6582389      0              59.273795      2123.4214    
    337000   298.73845     -5.7625428      0              56.755102      2018.0381    
    338000   300.27058     -4.1283736      0              58.709904      2090.372     
    339000   302.65413     -4.0775839      0              59.259505      2100.3026    
    340000   303.92729     -5.0177843      0              58.58574       2153.9388    
    341000   307.88011     -5.2007755      0              59.229965      2085.8144    
    342000   287.18607     -4.0553678      0              56.044686      2143.5517    
    343000   297.32391     -6.940835       0              55.280787      1956.2452    
    344000   308.00059     -6.2762564      0              58.179696      2115.5315    
    345000   302.89486     -4.300142       0              59.087324      2079.2799    
    346000   298.91854     -3.8411264      0              58.714207      2098.0617    
    347000   309.53647     -4.7489046      0              60.028466      2117.5985    
    348000   296.10237     -4.4052384      0              57.560749      2085.8275    
    349000   291.74855     -5.8820194      0              55.172835      1994.8737    
    350000   305.12373     -4.0605142      0              59.793392      2029.05      
    351000   309.14915     -5.1061443      0              59.590171      2059.7575    
    352000   302.54674     -3.9700233      0              59.344591      2097.3696    
    353000   294.66283     -3.7405802      0              57.924151      2248.5616    
    354000   300.8729      -4.3397239      0              58.624602      2150.8134    
    355000   300.26241     -2.8422455      0              59.994323      2138.3565    
    356000   304.45497     -4.3999571      0              59.313997      2068.8052    
    357000   302.03246     -5.5778487      0              57.62914       1951.8962    
    358000   301.82112     -2.9309501      0              60.231812      2129.7302    
    359000   296.30307     -5.1045132      0              56.903475      2029.6968    
    360000   292.14937     -4.3204168      0              56.818318      2178.4386    
    361000   310.08495     -5.6347755      0              59.257376      2133.8376    
    362000   310.64768     -3.9813741      0              61.028542      2038.5295    
    363000   290.27309     -4.8302445      0              55.915836      2086.027     
    364000   304.7496      -4.1087881      0              59.666823      2180.5026    
    365000   298.02607     -5.8983277      0              56.470237      2007.8105    
    366000   303.76403     -4.5605626      0              59.008798      2133.2536    
    367000   301.64072     -5.3753736      0              57.749636      2050.3069    
    368000   300.00553     -5.1415839      0              57.641227      2129.1564    
    369000   298.48191     -3.3216769      0              59.142281      2214.4606    
    370000   296.90363     -4.1859995      0              57.947669      2181.1385    
    371000   291.33157     -5.1621659      0              55.805425      1995.4135    
    372000   305.81954     -4.029349       0              59.970172      2084.3128    
    373000   290.35858     -5.0836353      0              55.680336      2024.2443    
    374000   298.50687     -5.9944735      0              56.474709      2114.5794    
    375000   301.27172     -6.3691903      0              56.678598      2093.5185    
    376000   306.2345      -6.0121939      0              58.074167      2103.1126    
    377000   293.53699     -6.8519913      0              54.577133      1990.1122    
    378000   304.7711      -5.7672484      0              58.012863      2060.591     
    379000   297.29816     -4.8652073      0              57.351025      2033.181     
    380000   305.93215     -2.1388021      0              61.884283      2131.6242    
    381000   304.91277     -4.6569747      0              59.152783      2109.8081    
    382000   298.28062     -4.1688779      0              58.252956      2115.1214    
    383000   299.13177     -3.5199566      0              59.079999      2113.8676    
    384000   299.80508     -4.7176844      0              58.023177      2123.402     
    385000   297.83303     -3.7639056      0              58.56426       2180.8755    
    386000   295.86407     -4.9786849      0              56.937433      2002.8762    
    387000   302.36668     -5.5744834      0              57.70245       2071.0037    
    388000   295.8765      -5.1513152      0              56.767403      2055.1943    
    389000   296.48099     -5.6882822      0              56.35694       2056.7604    
    390000   287.56819     -5.5950743      0              54.584946      2071.8606    
    391000   300.57111     -4.973857       0              57.927312      2115.0579    
    392000   307.49777     -4.1329873      0              60.21774       2052.7999    
    393000   297.7376      -6.7257505      0              55.582444      1960.6714    
    394000   296.54921     -3.6331813      0              58.426317      2092.7961    
    395000   295.24896     -3.3535932      0              58.433798      2089.6922    
    396000   300.25309     -4.1594039      0              58.675214      2044.905     
    397000   294.69178     -4.4094523      0              57.261338      2141.9257    
    398000   306.32532     -4.7196207      0              59.385745      2194.5685    
    399000   299.01205     -5.3383349      0              57.236568      2024.3634    
    400000   297.60249     -3.5811866      0              58.698734      2093.4352    
    401000   299.80935     -4.2313713      0              58.510384      1957.713     
    402000   291.88489     -4.0913044      0              56.992082      2113.9404    
    403000   300.55519     -5.2843869      0              57.613451      2138.894     
    404000   299.74481     -4.0722278      0              58.656021      2074.4295    
    405000   309.41022     -4.0645181      0              60.686432      2128.9731    
    406000   312.69045     -6.0456309      0              59.39178       2138.9572    
    407000   295.14562     -4.0582698      0              57.707495      2095.4178    
    408000   295.52259     -5.1772665      0              56.667388      2063.1136    
    409000   304.18214     -4.5976085      0              59.05925       2185.6889    
    410000   298.13198     -4.1751427      0              58.215586      2132.2868    
    411000   306.3814      -5.3804517      0              58.73665       2077.6152    
    412000   293.85731     -4.1601579      0              57.336         2048.8661    
    413000   306.17274     -4.3222193      0              59.751216      2096.9111    
    414000   299.45804     -4.7430268      0              57.925208      2083.0737    
    415000   300.00277     -4.1713688      0              58.610863      2238.5792    
    416000   302.2593      -5.4752704      0              57.77919       1940.3003    
    417000   299.96675     -3.5594298      0              59.215265      2175.4974    
    418000   292.81766     -3.234794       0              58.043795      2057.8038    
    419000   292.93126     -3.2455149      0              58.056847      2175.778     
    420000   295.41981     -3.8855323      0              57.937615      2013.7003    
    421000   307.53765     -4.3793686      0              59.979704      2062.8592    
    422000   296.93657     -5.9017462      0              56.238817      2125.6108    
    423000   300.44787     -4.49801        0              58.377369      2066.309     
    424000   299.47917     -4.2939649      0              58.378693      2104.213     
    425000   294.38314     -1.7710673      0              59.835132      2210.8607    
    426000   305.93332     -3.4369652      0              60.586367      2160.7458    
    427000   292.22695     -3.2723956      0              57.882574      2134.5445    
    428000   304.55552     -4.0257087      0              59.709287      2155.6132    
    429000   304.82553     -3.0033211      0              60.788181      2134.052     
    430000   309.55486     -3.4439856      0              61.337234      2154.1821    
    431000   303.57805     -5.9571101      0              57.57333       2091.2853    
    432000   300.89165     -4.3083777      0              58.659873      2087.0303    
    433000   299.82197     -4.3924803      0              58.351915      2031.3798    
    434000   299.94008     -4.151154       0              58.617958      2028.0236    
    435000   288.65528     -3.9406307      0              56.466887      2111.6857    
    436000   304.52716     -4.7172686      0              59.011792      2044.0595    
    437000   299.20384     -5.30997        0              57.305069      2015.095     
    438000   298.49087     -3.9255888      0              58.540246      2048.5102    
    439000   297.94287     -4.7732613      0              57.577891      2030.9732    
    440000   294.82695     -4.1751279      0              57.52395       2115.9941    
    441000   293.12897     -4.1192348      0              57.224502      2159.7695    
    442000   300.32735     -4.0471798      0              58.802979      2082.9349    
    443000   306.73952     -5.8688117      0              58.323236      2011.5125    
    444000   301.65484     -7.0231757      0              56.104789      1998.5963    
    445000   300.24358     -4.8451431      0              57.987485      2068.9718    
    446000   301.54525     -5.0731684      0              58.031862      2157.5529    
    447000   306.12702     -4.250392       0              59.813474      2172.9314    
    448000   301.66464     -4.2458365      0              58.884179      2122.3297    
    449000   301.29293     -5.4815736      0              57.570654      2174.1872    
    450000   308.46413     -6.1670826      0              58.385876      2023.0249    
    451000   304.73861     -5.4451912      0              58.328121      2096.0968    
    452000   290.39854     -5.2261758      0              55.546158      2113.3791    
    453000   310.30923     -5.2689566      0              59.67013       2013.2755    
    454000   295.0424      -4.6336231      0              57.110542      2112.7389    
    455000   290.76237     -5.425886       0              55.422588      2037.0451    
    456000   302.76043     -3.8433108      0              59.516022      2028.7589    
    457000   299.64022     -2.7253484      0              59.981012      2195.7216    
    458000   296.67425     -3.8947776      0              58.190889      2192.4234    
    459000   292.20062     -4.7711118      0              56.378348      2138.0132    
    460000   302.38874     -3.9066568      0              59.374892      2051.5185    
    461000   310.16484     -4.7944868      0              60.114383      2111.0293    
    462000   290.87754     -4.3478708      0              56.524705      2120.8803    
    463000   284.07222     -6.7788782      0              52.669533      1957.9207    
    464000   302.65651     -5.6203874      0              57.7172        2037.8661    
    465000   300.39343     -4.4623751      0              58.401611      2079.4023    
    466000   289.6855      -4.498391       0              56.124724      2032.0574    
    467000   306.57986     -4.1220178      0              60.036617      2147.3687    
    468000   289.34177     -4.5571574      0              55.994025      2033.1745    
    469000   293.5132      -4.0670368      0              57.357109      2067.8834    
    470000   295.66688     -5.0466925      0              56.828159      2012.7547    
    471000   306.56388     -4.4774714      0              59.677818      2114.2907    
    472000   297.77517     -4.6652172      0              57.650841      1986.1631    
    473000   301.16404     -5.4744478      0              57.550806      2066.3497    
    474000   296.64125     -4.2034914      0              57.875267      2045.0376    
    475000   305.34423     -4.1161122      0              59.783939      2224.6351    
    476000   304.63677     -5.193608       0              58.558392      2152.6991    
    477000   305.15558     -4.7182749      0              59.142296      2129.8066    
    478000   296.53542     -4.9342248      0              57.122387      2162.8251    
    479000   304.52991     -4.415664       0              59.313972      2115.8515    
    480000   300.79044     -5.7568391      0              57.190231      2046.6104    
    481000   288.14339     -5.7635343      0              54.536859      2008.6771    
    482000   303.58946     -4.2433947      0              59.289431      2034.7067    
    483000   305.71048     -4.376588       0              59.600109      2000.7006    
    484000   303.48143     -5.1828607      0              58.327359      2134.0919    
    485000   302.89809     -6.6127505      0              56.775391      2094.0157    
    486000   304.81972     -4.9720566      0              58.81823       2077.6795    
    487000   299.99853     -5.7209185      0              57.060427      1991.1792    
    488000   300.63881     -3.7545241      0              59.160813      2075.5596    
    489000   309.35326     -5.349735       0              59.389295      2072.3707    
    490000   291.33507     -6.2586283      0              54.709695      2011.5989    
    491000   290.09542     -4.3769912      0              56.331908      2095.9972    
    492000   296.4142      -4.7882006      0              57.243045      2053.2202    
    493000   311.58566     -4.8133184      0              60.392891      2023.1517    
    494000   306.06627     -4.2960105      0              59.755144      2096.0522    
    495000   298.14116     -4.6465006      0              57.746149      2094.6404    
    496000   310.39829     -4.3387994      0              60.618926      2196.2578    
    497000   306.41555     -3.7094292      0              60.41482       2089.9106    
    498000   303.7169      -4.9819141      0              58.577582      2084.2768    
    499000   302.95902     -3.6183737      0              59.782518      2244.7205    
    500000   301.2923      -3.5069681      0              59.545126      2141.2297    
    501000   297.57001     -4.2448675      0              58.028255      2182.1713    
    502000   307.0563      -3.9514757      0              60.306864      2121.3534    
    503000   299.04567     -5.0680711      0              57.513867      1978.1303    
    504000   299.55215     -3.7476299      0              58.940299      2069.6117    
    505000   303.93378     -5.6399161      0              57.964966      1993.2736    
    506000   303.38159     -4.9299969      0              58.559327      2054.657     
    507000   310.41447     -5.3630952      0              59.598015      2034.0251    
    508000   293.87947     -6.0260375      0              55.474758      2073.3728    
    509000   301.45172     -3.6249393      0              59.460518      2075.0087    
    510000   304.55214     -5.6633136      0              58.070975      2042.285     
    511000   306.57945     -4.3623826      0              59.796165      1988.7443    
    512000   307.64999     -4.0719556      0              60.310626      2127.4034    
    513000   305.22321     -5.2819576      0              58.592767      2038.5797    
    514000   302.43028     -3.8467277      0              59.443514      2118.6703    
    515000   303.84902     -4.2098063      0              59.377338      2078.8975    
    516000   297.81804     -4.0870565      0              58.237973      2099.208     
    517000   305.01812     -4.5653334      0              59.266471      2083.1283    
    518000   314.11112     -3.7119356      0              62.022782      2170.5077    
    519000   288.89517     -4.6522917      0              55.805429      2191.6368    
    520000   292.3223      -5.2699461      0              55.904978      2090.72      
    521000   294.37034     -4.0775217      0              57.525999      2126.1431    
    522000   304.53133     -5.1145273      0              58.615405      2125.045     
    523000   301.92567     -3.4915342      0              59.693108      2170.3037    
    524000   307.5074      -4.687564       0              59.665178      2192.4193    
    525000   310.35177     -2.9720772      0              61.975913      2217.152     
    526000   297.86864     -3.5499182      0              58.7857        2143.4262    
    527000   301.08171     -3.8149336      0              59.19309       2065.696     
    528000   299.23603     -3.4438165      0              59.177958      2166.0902    
    529000   304.38296     -3.9994547      0              59.699429      2112.8744    
    530000   293.55305     -3.5559594      0              57.876526      2051.1317    
    531000   297.48669     -4.4032001      0              57.852486      1999.4418    
    532000   298.42782     -3.8325847      0              58.620054      2052.984     
    533000   297.80171     -4.2779681      0              58.043643      2021.5142    
    534000   314.88869     -6.2648722      0              59.632568      2041.4473    
    535000   294.8343      -5.8277284      0              55.872888      1994.3879    
    536000   304.11679     -4.9658106      0              58.677372      2185.9002    
    537000   291.83126     -5.1462384      0              55.925924      2090.2471    
    538000   297.76944     -3.6311302      0              58.683729      2176.4021    
    539000   290.71875     -3.8868507      0              56.952494      2077.6306    
    540000   299.01579     -6.6642073      0              55.911477      1957.5136    
    541000   303.05531     -5.0721088      0              58.348936      2022.0329    
    542000   296.20326     -3.8362433      0              58.150858      2127.3422    
    543000   311.24226     -5.8202238      0              59.314121      2119.8981    
    544000   304.52589     -3.6725584      0              60.056236      2086.0346    
    545000   308.39708     -3.8631087      0              60.675819      2115.1615    
    546000   301.86451     -4.9980949      0              58.173747      2019.7401    
    547000   294.8789      -4.4061442      0              57.303804      2101.2817    
    548000   303.60865     -4.549207       0              58.987635      2147.1896    
    549000   297.53784     -5.2476671      0              57.018724      2040.2887    
    550000   306.1048      -4.2091738      0              59.850043      2055.1144    
    551000   308.52665     -5.3349646      0              59.231079      2060.1396    
    552000   305.2381      -5.3374837      0              58.540357      2042.8248    
    553000   305.41656     -4.3121269      0              59.603061      2071.9588    
    554000   306.04719     -4.6016678      0              59.445492      2154.3076    
    555000   303.10597     -5.4361932      0              57.995452      2149.8268    
    556000   289.97369     -4.9058021      0              55.777623      2103.6461    
    557000   302.54597     -5.331652       0              57.982801      2091.4565    
    558000   293.84019     -4.533204       0              56.959372      2061.6775    
    559000   294.38988     -4.847145       0              56.760466      2022.5326    
    560000   300.74539     -3.6460916      0              59.29155       2122.1999    
    561000   300.50443     -4.2506627      0              58.636553      2097.4974    
    562000   300.78726     -6.0389999      0              56.907405      2058.9086    
    563000   308.65429     -4.3421457      0              60.250608      2146.6237    
    564000   308.36931     -2.9917157      0              61.5414        2126.1064    
    565000   305.88631     -5.2707369      0              58.742756      2117.5539    
    566000   291.00578     -5.1979459      0              55.701466      2119.9738    
    567000   298.75836     -3.9189417      0              58.60287       2117.4773    
    568000   301.42903     -5.4411786      0              57.63953       2038.3974    
    569000   296.21636     -4.0448703      0              57.944972      2237.1279    
    570000   289.10845     -2.8381274      0              57.664227      2040.0016    
    571000   299.5127      -3.9422523      0              58.737421      2221.3297    
    572000   297.54968     -3.4265986      0              58.842269      2139.1326    
    573000   293.57836     -4.6848631      0              56.752919      2091.8344    
    574000   300.63938     -5.4575845      0              57.457872      2169.2077    
    575000   303.5344      -4.8280784      0              58.693226      2072.1486    
    576000   288.60502     -2.3551134      0              58.041886      2136.4471    
    577000   303.8487      -4.2990886      0              59.287989      2031.632     
    578000   301.11115     -5.0116805      0              58.002505      2070.9458    
    579000   289.95361     -3.5645928      0              57.11463       2108.7747    
    580000   299.19635     -5.204179       0              57.409292      2048.1403    
    581000   296.81524     -4.9334318      0              57.18174       2028.2538    
    582000   307.18071     -5.0914998      0              59.192875      2059.1919    
    583000   297.04471     -3.5541264      0              58.609066      2178.987     
    584000   307.79279     -4.8774428      0              59.535024      2188.3998    
    585000   306.40817     -5.3616816      0              58.761024      2101.4991    
    586000   299.59938     -5.3357003      0              57.362114      2107.8108    
    587000   301.11723     -4.5173703      0              58.498088      2109.2445    
    588000   304.63493     -3.1250956      0              60.626518      2194.5672    
    589000   306.22337     -4.3971521      0              59.686879      2158.381     
    590000   299.87671     -4.2560814      0              58.49977       2103.2589    
    591000   304.83623     -5.5504879      0              58.243254      2078.5093    
    592000   304.91533     -5.1386284      0              58.671666      2091.5762    
    593000   314.70999     -4.8406262      0              61.019417      2050.3451    
    594000   300.33639     -2.6341275      0              60.217921      2124.5984    
    595000   303.36943     -4.7243971      0              58.762383      2112.4889    
    596000   294.8668      -5.1392224      0              56.568194      2046.8219    
    597000   292.96484     -4.9378883      0              56.371501      2124.7467    
    598000   298.86258     -2.9748741      0              59.568749      2088.1982    
    599000   300.81127     -3.7207739      0              59.230654      2108.2175    
    600000   300.77171     -4.2459981      0              58.697152      2184.632     
    601000   305.13344     -3.7185997      0              60.137339      2195.8134    
    602000   291.43115     -4.3081364      0              56.680294      2130.5905    
    603000   300.63348     -3.2976646      0              59.616557      2087.5169    
    604000   298.82894     -6.5797964      0              55.956786      2062.8594    
    605000   301.61719     -4.6169114      0              58.503174      2059.7974    
    606000   288.60978     -3.8374595      0              56.560537      2086.2912    
    607000   305.60853     -5.0265501      0              58.928812      2036.508     
    608000   300.29581     -4.0013324      0              58.842225      2074.0558    
    609000   309.74071     -4.4493013      0              60.370812      2068.3223    
    610000   292.88773     -2.5218061      0              58.771445      2231.4462    
    611000   305.33588     -4.1078812      0              59.790422      2112.1835    
    612000   292.02472     -4.3561272      0              56.756522      2036.7802    
    613000   297.00069     -4.049373       0              58.104608      2089.0299    
    614000   293.62517     -5.1605813      0              56.286997      1863.4874    
    615000   293.68711     -3.1238751      0              58.336665      2171.6865    
    616000   290.83593     -4.9187214      0              55.945147      2049.4296    
    617000   303.0277      -4.0456855      0              59.369581      2110.7416    
    618000   300.42241     -5.7935927      0              57.076458      2031.8119    
    619000   303.85512     -4.7556838      0              58.832738      2071.978     
    620000   302.32853     -4.8699971      0              58.398952      2088.0491    
    621000   308.56349     -4.6318241      0              59.941929      2209.8765    
    622000   305.25724     -2.8070515      0              61.074795      2192.2776    
    623000   299.83739     -3.488483       0              59.259141      2165.32      
    624000   306.47963     -5.4618498      0              58.675808      2123.4626    
    625000   294.31408     -4.3376558      0              57.254092      2186.2794    
    626000   293.32966     -4.829406       0              56.556329      2103.7337    
    627000   308.66406     -4.6934274      0              59.901372      2095.8047    
    628000   293.72038     -3.3225137      0              58.14499       2099.8969    
    629000   301.92104     -3.5014487      0              59.682223      2189.3771    
    630000   293.2858      -5.4767032      0              55.899853      2103.4476    
    631000   300.76057     -2.8417016      0              60.099118      2122.1124    
    632000   314.32347     -4.2900258      0              61.48913       2174.2331    
    633000   308.52595     -4.4847813      0              60.081114      2015.1561    
    634000   300.87852     -6.5567306      0              56.408772      2092.2254    
    635000   288.69301     -4.1253729      0              56.290042      2058.0591    
    636000   291.49307     -3.4605724      0              57.540817      2097.716     
    637000   292.48246     -3.853721       0              57.354719      1982.189     
    638000   299.08717     -4.3146022      0              58.276019      2113.8227    
    639000   292.62365     -3.9880937      0              57.249895      2010.0701    
    640000   301.35501     -4.5532666      0              58.511951      2079.1343    
    641000   302.87398     -3.6853064      0              59.69779       1994.8827    
    642000   298.73993     -4.7425707      0              57.775384      2007.1129    
    643000   300.80112     -4.9468835      0              58.002421      2129.1453    
    644000   305.84257     -5.0999076      0              58.904432      2145.4845    
    645000   299.0658      -4.4110238      0              58.175127      2026.847     
    646000   304.43823     -3.816891       0              59.89356       2156.0426    
    647000   307.17764     -3.8114985      0              60.472235      2121.3725    
    648000   296.10035     -6.2947031      0              55.670861      2041.4959    
    649000   297.1446      -4.9110979      0              57.273         2021.4069    
    650000   296.07821     -5.7595471      0              56.201383      2006.079     
    651000   301.00043     -5.5298772      0              57.461138      2094.695     
    652000   302.92376     -4.3084593      0              59.085054      2061.5259    
    653000   299.05009     -4.9411408      0              57.641722      2113.8911    
    654000   301.72972     -3.8830823      0              59.260553      2078.2674    
    655000   291.02161     -3.046458       0              57.856267      2074.1979    
    656000   300.24995     -4.2085227      0              58.625438      2064.2166    
    657000   302.33833     -4.4626952      0              58.808305      2148.6136    
    658000   303.96998     -5.0470119      0              58.565448      2041.613     
    659000   304.92089     -6.9476227      0              56.863836      2001.1975    
    660000   295.18086     -3.2384293      0              58.534712      2187.224     
    661000   298.20296     -5.4276851      0              56.977896      2125.1443    
    662000   296.07828     -3.8924509      0              58.068495      2084.6513    
    663000   299.5352      -5.742552       0              56.94183       2033.6212    
    664000   300.74742     -5.9063292      0              57.031738      1929.6116    
    665000   289.84945     -5.026234       0              55.631191      2086.2935    
    666000   298.62935     -6.0905         0              56.404313      2045.4555    
    667000   318.67316     -3.7477218      0              62.941703      2105.0431    
    668000   301.99016     -4.6127635      0              58.585374      2131.0042    
    669000   304.01043     -3.6118276      0              60.009097      2254.3467    
    670000   301.35625     -5.4405168      0              57.624961      2046.1416    
    671000   303.42227     -5.6761713      0              57.821666      2064.9545    
    672000   303.68731     -4.7817561      0              58.771549      2124.3503    
    673000   291.57464     -5.3775894      0              55.640869      2052.5415    
    674000   296.46963     -5.4757866      0              56.567057      2045.5582    
    675000   294.78467     -2.5693469      0              59.120881      2132.6596    
    676000   304.23893     -5.4430602      0              58.225682      2026.4039    
    677000   297.45506     -4.3204503      0              57.928617      2073.0614    
    678000   305.47974     -4.2643191      0              59.66409       2142.1955    
    679000   292.5411      -4.3141834      0              56.906529      1983.9357    
    680000   305.61604     -3.0957562      0              60.861178      2059.3474    
    681000   293.50523     -3.5541446      0              57.868334      2249.9354    
    682000   304.68186     -4.1729576      0              59.588478      2083.2777    
    683000   305.58955     -2.9533239      0              60.998067      2260.8942    
    684000   299.68777     -4.7717065      0              57.944604      2098.9764    
    685000   303.16916     -3.6995398      0              59.745329      2147.5638    
    686000   303.43884     -6.3182856      0              57.183021      2033.9346    
    687000   289.00862     -6.5070489      0              53.974414      1920.8342    
    688000   305.85474     -2.8785153      0              61.128372      2190.112     
    689000   295.09684     -4.1020604      0              57.653497      2111.2703    
    690000   298.12978     -4.495019       0              57.895248      2136.9898    
    691000   294.2227      -4.7361226      0              56.836501      2020.9558    
    692000   300.41538     -3.388263       0              59.480317      2142.2047    
    693000   309.79942     -4.2914574      0              60.540942      2199.0135    
    694000   293.43041     -4.2168319      0              57.189989      2079.1826    
    695000   296.54835     -4.7136755      0              57.345642      2130.5697    
    696000   305.48476     -4.2848812      0              59.644579      2180.7813    
    697000   306.0983      -3.9032866      0              60.154571      2176.569     
    698000   300.36441     -3.8831336      0              58.97478       2119.3409    
    699000   291.99138     -5.0240738      0              56.081597      1942.2774    
    700000   295.1194      -5.3390156      0              56.421264      2008.5207    
    701000   304.4768      -5.8570363      0              57.861486      1997.1728    
    702000   303.90659     -4.8887927      0              58.710399      2095.8352    
    703000   296.83141     -4.0008739      0              58.117681      2126.9866    
    704000   291.05401     -4.7724948      0              56.137011      2131.2735    
    705000   306.22345     -5.2372709      0              58.846776      2073.816     
    706000   292.40873     -4.8325498      0              56.360461      2078.5151    
    707000   298.37185     -5.4908141      0              56.950112      1971.942     
    708000   295.27279     -4.8318249      0              56.960554      1975.6762    
    709000   309.33017     -4.5674647      0              60.166733      2061.4347    
    710000   303.17481     -4.7264107      0              58.719642      2091.5517    
    711000   295.37405     -4.8821563      0              56.931413      2077.8312    
    712000   294.72617     -4.863535       0              56.814451      2063.6533    
    713000   290.93193     -4.0985145      0              56.785444      2116.3955    
    714000   293.94827     -4.6173103      0              56.897883      2089.7396    
    715000   306.23967     -3.2174427      0              60.869999      2107.7384    
    716000   310.15189     -3.0955616      0              61.810599      2272.5782    
    717000   290.89639     -5.1125885      0              55.763933      2005.1762    
    718000   297.95308     -5.2145671      0              57.138723      2128.4371    
    719000   299.62039     -5.4322349      0              57.269976      2068.9807    
    720000   288.81525     -5.4070885      0              55.033907      2102.906     
    721000   298.89513     -4.923385       0              57.62705       2116.888     
    722000   294.06094     -3.7949197      0              57.743852      2130.6264    
    723000   297.69385     -3.284032       0              59.015007      2100.7388    
    724000   309.19458     -5.6927917      0              59.013032      2007.7028    
    725000   295.32226     -5.4394764      0              56.363254      2060.5603    
    726000   311.62519     -6.273739       0              58.940741      2017.0009    
    727000   309.76762     -4.8380023      0              59.987741      2055.0625    
    728000   293.78709     -4.6609407      0              56.820523      2112.4137    
    729000   297.01164     -4.184454       0              57.971817      2154.1786    
    730000   303.59083     -6.45664        0              57.076473      2073.1749    
    731000   295.05993     -4.3082052      0              57.439628      2054.0283    
    732000   300.44527     -5.349285       0              57.525551      2168.3441    
    733000   293.84059     -3.8351819      0              57.657476      2084.5603    
    734000   294.65972     -4.1579726      0              57.506108      2178.6168    
    735000   295.67875     -4.0921859      0              57.785149      2050.9887    
    736000   307.54612     -5.7143375      0              58.646509      2065.0116    
    737000   302.73501     -5.0480292      0              58.305985      1984.0353    
    738000   296.675       -4.3334327      0              57.75239       2090.3685    
    739000   288.38959     -4.8895431      0              55.462374      2084.991     
    740000   296.95866     -4.1002504      0              58.044933      2105.4463    
    741000   303.59723     -6.1949943      0              57.339458      2025.9525    
    742000   308.93069     -4.1615357      0              60.489061      2223.6593    
    743000   301.13999     -5.2424932      0              57.777727      2109.5285    
    744000   297.51922     -5.1356472      0              57.126847      2029.2935    
    745000   298.80301     -5.4007818      0              57.130374      2101.7672    
    746000   301.41639     -5.4892184      0              57.588845      2027.3366    
    747000   296.01874     -4.1189023      0              57.829584      2011.0674    
    748000   300.0077      -5.0775817      0              57.705682      2178.72      
    749000   303.76412     -5.3721473      0              58.197231      2098.7533    
    750000   294.66647     -4.4901956      0              57.175298      2082.5972    
    751000   303.38462     -4.0778877      0              59.412072      2097.9977    
    752000   295.00097     -2.2852795      0              59.450215      2151.2561    
    753000   295.29781     -3.7523139      0              58.045302      2202.206     
    754000   292.13687     -3.7444697      0              57.391649      2122.0824    
    755000   294.13288     -4.2833935      0              57.270434      2117.4058    
    756000   300.28975     -5.6268136      0              57.215476      2067.3601    
    757000   295.37428     -3.2984833      0              58.515134      2085.6596    
    758000   304.6633      -4.7447957      0              59.012755      2039.0274    
    759000   306.90369     -4.4377156      0              59.788686      2117.0545    
    760000   285.66721     -4.2542865      0              55.527911      2000.9978    
    761000   292.95965     -6.4637641      0              54.844539      2019.2132    
    762000   294.30079     -3.5927392      0              57.996228      2087.0745    
    763000   302.81753     -5.0886922      0              58.282591      1989.2057    
    764000   302.55191     -4.8358892      0              58.479807      2094.0437    
    765000   304.88869     -6.2395758      0              57.565143      2045.9462    
    766000   299.41715     -3.0801539      0              59.579525      2151.0653    
    767000   302.5842      -4.2236841      0              59.098769      2052.2594    
    768000   310.56534     -3.8219418      0              61.170743      2162.0288    
    769000   300.45412     -4.2897833      0              58.586904      2097.3477    
    770000   294.95055     -6.5952149      0              55.129729      2050.9768    
    771000   292.46472     -5.4400035      0              55.764724      2123.0456    
    772000   293.1444      -4.7739699      0              56.572997      2089.7298    
    773000   299.56951     -3.2251781      0              59.466385      2090.6395    
    774000   297.95099     -3.028699       0              59.324153      2213.4078    
    775000   291.01996     -2.4377158      0              58.464665      2179.4073    
    776000   300.93197     -4.9521635      0              58.024525      2058.5172    
    777000   302.80648     -5.4064565      0              57.962514      2113.6815    
    778000   306.83216     -4.2875358      0              59.923897      2039.8802    
    779000   306.19894     -4.5153509      0              59.563568      2071.2317    
    780000   288.50271     -4.3568662      0              56.018724      1935.3121    
    781000   294.75735     -3.2963616      0              58.388151      2199.5057    
    782000   308.40557     -3.8233286      0              60.717377      2096.6453    
    783000   298.85551     -4.1900982      0              58.352044      2061.4221    
    784000   298.61032     -4.7007759      0              57.790056      2007.4241    
    785000   308.73187     -6.0328299      0              58.576159      2072.4849    
    786000   306.14275     -5.0152739      0              59.051884      2161.7337    
    787000   295.20014     -4.8945146      0              56.88266       2064.9829    
    788000   296.53525     -3.9326845      0              58.123893      2090.7367    
    789000   298.84768     -4.1437391      0              58.396766      2107.6441    
    790000   303.9783      -4.1112813      0              59.502918      2188.2687    
    791000   297.42358     -5.971778       0              56.270701      2063.7232    
    792000   297.87014     -5.481343       0              56.854589      2107.5073    
    793000   304.75556     -3.1315259      0              60.645334      2111.6366    
    794000   301.42676     -3.8651456      0              59.215088      2071.2262    
    795000   301.0127      -3.6628045      0              59.330777      2090.5518    
    796000   296.18146     -4.3886217      0              57.593917      2062.9773    
    797000   300.74445     -3.9914391      0              58.946005      2147.1111    
    798000   299.31324     -4.0257708      0              58.612162      2137.4563    
    799000   305.03691     -4.9648547      0              58.870883      2085.6092    
    800000   306.62039     -5.9154942      0              58.251622      1970.4867    
    801000   303.78364     -4.5680437      0              59.005419      2098.411     
    802000   296.91787     -5.0307318      0              57.105918      2067.8545    
    803000   306.10665     -4.3628339      0              59.69677       2086.0886    
    804000   313.55686     -5.0719276      0              60.546798      2118.2093    
    805000   298.69764     -4.9026259      0              57.606479      2105.9994    
    806000   304.84721     -4.778776       0              59.017262      2109.0157    
    807000   304.97953     -4.2864592      0              59.537271      2083.922     
    808000   309.63035     -4.4796976      0              60.317319      2044.8979    
    809000   300.20223     -5.6296853      0              57.194289      2086.3017    
    810000   292.49624     -2.930877       0              58.280447      2228.1966    
    811000   302.56871     -4.9333993      0              58.385812      1971.3139    
    812000   291.63418     -4.3466092      0              56.68431       2091.1987    
    813000   295.26934     -6.4299618      0              55.361694      2013.7029    
    814000   303.58118     -3.7069891      0              59.824104      2035.2175    
    815000   299.80776     -3.8858321      0              58.855589      2129.3929    
    816000   304.24939     -3.2055419      0              60.465389      2163.4864    
    817000   294.27543     -5.2621563      0              56.321503      2107.3475    
    818000   303.15214     -3.7898903      0              59.651418      2121.1827    
    819000   295.41905     -4.0319999      0              57.790988      2115.3135    
    820000   297.84765     -4.1419401      0              58.189285      2126.0737    
    821000   303.40929     -5.672074       0              57.823048      2039.1296    
    822000   287.69846     -4.1426254      0              56.064656      2127.5151    
    823000   298.88964     -3.7703472      0              58.778937      2095.8704    
    824000   296.69954     -3.6720538      0              58.418904      2190.2937    
    825000   297.2075      -6.6371378      0              55.560122      2096.3895    
    826000   297.97797     -4.2215052      0              58.136993      2138.2933    
    827000   303.89322     -6.4685546      0              57.127841      2108.0323    
    828000   309.85094     -4.9866944      0              59.856485      2095.8307    
    829000   292.27933     -4.4759666      0              56.689964      2117.7852    
    830000   307.30404     -4.8035517      0              59.506633      2048.3353    
    831000   299.90928     -3.7206035      0              59.042064      1979.692     
    832000   309.57783     -4.3225077      0              60.463518      2220.888     
    833000   293.73459     -4.7436979      0              56.726779      2034.0175    
    834000   301.53232     -3.5832145      0              59.51911       2114.1738    
    835000   301.47411     -4.1326988      0              58.957443      2066.659     
    836000   293.8821      -6.1671         0              55.334246      2119.1703    
    837000   302.57419     -5.1670004      0              58.153359      2095.568     
    838000   300.26139     -4.1471063      0              58.689247      2237.7092    
    839000   302.07546     -4.3230505      0              58.892939      2106.2071    
    840000   297.50597     -5.7053821      0              56.554339      2100.2028    
    841000   298.72484     -3.490709       0              59.024087      2096.8623    
    842000   301.59116     -4.4658475      0              58.64879       2114.2546    
    843000   293.30779     -5.5187587      0              55.8624        1949.0062    
    844000   313.99126     -5.3974109      0              60.312223      2113.0707    
    845000   302.9013      -4.090134       0              59.298679      2118.5886    
    846000   298.76786     -3.7522479      0              58.771552      2135.3775    
    847000   296.84781     -3.6893347      0              58.432651      2011.9044    
    848000   303.11748     -4.2779098      0              59.156145      2134.7286    
    849000   300.71012     -5.4120016      0              57.51826       2150.5509    
    850000   305.48534     -4.512812       0              59.41677       2094.1781    
    851000   290.45131     -5.1641454      0              55.619232      2105.5772    
    852000   304.12041     -4.5409786      0              59.10296       2101.8797    
    853000   295.69654     -5.557007       0              56.324052      2083.1149    
    854000   286.78898     -4.2185972      0              55.798357      2068.1488    
    855000   303.47677     -4.8690259      0              58.640218      2149.087     
    856000   307.88121     -4.5385656      0              59.892404      2173.9182    
    857000   308.25564     -4.0482377      0              60.461091      2045.9271    
    858000   295.25536     -4.1179396      0              57.670791      1996.5386    
    859000   304.92021     -4.7021347      0              59.10918       2132.7369    
    860000   296.11151     -4.1758761      0              57.792024      2142.5647    
    861000   297.57841     -3.3590885      0              58.915793      2181.3719    
    862000   294.49043     -5.0568857      0              56.571767      2147.7011    
    863000   298.27255     -4.5315331      0              57.888612      2126.4138    
    864000   298.21785     -5.5310229      0              56.877674      2057.7738    
    865000   306.42401     -3.8281445      0              60.297875      2191.9391    
    866000   305.64697     -3.0904765      0              60.87293       2148.2166    
    867000   288.33073     -3.6320439      0              56.707555      2118.9349    
    868000   291.03803     -5.204267       0              55.701895      2122.9928    
    869000   299.09091     -4.5219708      0              58.069434      2122.6701    
    870000   296.96081     -3.0559908      0              59.089644      2088.4669    
    871000   301.42519     -4.1209922      0              58.958913      2152.6576    
    872000   291.31127     -3.4873622      0              57.475981      2047.9265    
    873000   311.81947     -3.3505722      0              61.904566      2103.4269    
    874000   300.33409     -2.0962306      0              60.755338      2196.4378    
    875000   303.90501     -2.4194289      0              61.179433      2198.4993    
    876000   291.9717      -7.360777       0              53.740775      1993.1207    
    877000   299.54045     -4.0855119      0              58.59997       2018.9696    
    878000   307.15749     -3.4616916      0              60.817824      2068.2831    
    879000   298.77891     -3.8698724      0              58.65624       2108.8834    
    880000   292.56652     -4.1370805      0              57.088952      2075.2845    
    881000   290.23787     -4.6596741      0              56.079037      1956.084     
    882000   297.41849     -5.2710357      0              56.970378      2077.5639    
    883000   305.41443     -5.824656       0              58.090087      1976.3408    
    884000   290.37187     -3.68487        0              57.081883      2104.559     
    885000   302.60404     -4.730181       0              58.596425      2102.038     
    886000   297.77029     -4.1988867      0              58.11615       2120.3099    
    887000   290.26622     -4.0743242      0              56.67032       2117.5003    
    888000   310.26482     -5.8080649      0              59.121728      2106.4087    
    889000   296.79628     -4.9501934      0              57.16101       2106.5095    
    890000   301.32843     -5.4187786      0              57.640876      2037.4231    
    891000   288.37518     -4.0382725      0              56.310629      2036.4682    
    892000   297.71303     -3.8534452      0              58.449607      2046.0752    
    893000   296.18737     -5.1433136      0              56.840461      2017.3869    
    894000   304.52915     -3.1974355      0              60.532043      2167.0227    
    895000   301.77595     -4.4479223      0              58.705388      2092.0102    
    896000   306.62159     -2.8583429      0              61.309025      2227.7787    
    897000   301.48386     -3.9830446      0              59.109139      2195.6397    
    898000   304.11579     -3.6348573      0              60.008116      2120.4742    
    899000   296.49576     -5.1715345      0              56.876777      2040.6496    
    900000   285.97626     -3.6459983      0              56.200876      2135.0023    
    901000   292.69418     -4.6864388      0              56.566309      2105.6439    
    902000   290.7239      -3.5523975      0              57.288025      2076.9048    
    903000   296.25926     -3.4767923      0              58.522027      2215.0944    
    904000   299.95174     -4.5886964      0              58.182858      2074.0733    
    905000   291.68123     -4.4752085      0              56.565557      1988.6601    
    906000   308.48849     -3.6313609      0              60.926697      2221.3261    
    907000   300.92755     -5.0056547      0              57.970108      2083.9031    
    908000   301.55665     -4.2260885      0              58.881327      2143.4565    
    909000   308.28039     -4.0547535      0              60.459755      2055.7223    
    910000   286.85061     -4.4527111      0              55.57714       2076.2772    
    911000   293.43497     -3.8166316      0              57.591143      2118.9458    
    912000   300.77586     -4.820592       0              58.123427      2072.6468    
    913000   300.1962      -3.6980821      0              59.124629      2135.5549    
    914000   309.82573     -4.3130106      0              60.524894      2214.8005    
    915000   303.46463     -5.2263754      0              58.280328      2065.2954    
    916000   299.11548     -3.109357       0              59.48719       2128.0701    
    917000   310.71449     -2.9034481      0              62.12045       2201.9548    
    918000   296.47993     -2.0014201      0              60.043581      2051.165     
    919000   302.49869     -3.3140678      0              59.99049       2219.0099    
    920000   302.44767     -4.690047       0              58.603834      2055.8879    
    921000   293.01568     -5.1413803      0              56.178647      2069.3423    
    922000   297.20453     -4.0861554      0              58.110482      2196.1237    
    923000   300.72426     -5.6805648      0              57.252655      2031.6253    
    924000   299.89928     -2.7768669      0              59.983708      2135.8186    
    925000   300.73218     -3.9161621      0              59.018716      2086.4052    
    926000   294.90696     -5.177504       0              56.538317      2073.5213    
    927000   297.16905     -4.4567173      0              57.732496      2117.6484    
    928000   295.64823     -5.0711209      0              56.799827      2098.0365    
    929000   289.30868     -3.4358694      0              57.108388      2121.6684    
    930000   298.27926     -6.3248292      0              56.09672       2059.4727    
    931000   301.11459     -3.2673337      0              59.747572      2179.4035    
    932000   294.88267     -5.7894467      0              55.92129       2051.1365    
    933000   305.35415     -4.7292443      0              59.172882      2101.796     
    934000   306.81121     -3.5119473      0              60.695101      2242.8006    
    935000   303.47123     -4.4371986      0              59.070885      2079.5633    
    936000   303.48772     -5.296739       0              58.214795      2098.1911    
    937000   296.05762     -3.8746976      0              58.081924      2119.1649    
    938000   307.00975     -5.2728962      0              58.975701      2163.4243    
    939000   302.57656     -5.6323422      0              57.688512      2059.5529    
    940000   297.84505     -5.6013575      0              56.729324      2111.6959    
    941000   296.09549     -4.3367165      0              57.627831      2177.2923    
    942000   300.36336     -4.3335754      0              58.524118      2184.5685    
    943000   306.72275     -6.0828011      0              58.105735      1935.9349    
    944000   306.81077     -4.5593597      0              59.647598      2004.616     
    945000   288.97681     -4.5596559      0              55.91515       1965.844     
    946000   306.22973     -3.6745882      0              60.410773      2185.901     
    947000   295.48174     -6.6547977      0              55.181308      2104.8696    
    948000   304.68263     -6.1764546      0              57.585141      2069.311     
    949000   305.79601     -4.3307482      0              59.663848      2150.8068    
    950000   301.80991     -4.6886912      0              58.471724      2113.7125    
    951000   298.86583     -4.0737433      0              58.470559      2038.9459    
    952000   307.26996     -2.9083825      0              61.394669      2148.6037    
    953000   316.55261     -3.7747737      0              62.47088       2268.5347    
    954000   298.61032     -3.7385255      0              58.752305      2111.0565    
    955000   304.58309     -2.9893701      0              60.751396      2163.4514    
    956000   300.88352     -5.0188024      0              57.947746      2047.4456    
    957000   300.93045     -4.0093667      0              58.967002      2084.677     
    958000   282.73443     -4.8265402      0              54.341909      2115.3964    
    959000   301.66543     -5.3052472      0              57.824934      2130.3245    
    960000   299.4859      -4.4421871      0              58.231878      2022.9       
    961000   295.64602     -5.2351276      0              56.635357      2155.1981    
    962000   298.37574     -5.4626943      0              56.979045      1989.99      
    963000   296.18334     -5.7830599      0              56.199872      2074.3138    
    964000   298.08885     -3.5663484      0              58.815353      2170.0652    
    965000   302.48401     -4.6019027      0              58.699583      2074.1032    
    966000   296.05052     -4.5370283      0              57.418108      2100.1578    
    967000   311.52912     -5.1469417      0              60.047436      2111.6243    
    968000   300.99161     -4.4507457      0              58.538424      2030.2025    
    969000   307.94627     -4.6882447      0              59.75634       2032.875     
    970000   305.18113     -4.6238803      0              59.242039      2030.4298    
    971000   304.30235     -4.8238694      0              58.858145      2068.7414    
    972000   301.24144     -3.4154028      0              59.626049      2105.7843    
    973000   300.28303     -5.5363064      0              57.304577      2038.3455    
    974000   298.50045     -5.2096947      0              57.258143      2033.9776    
    975000   304.70611     -4.4891715      0              59.277338      2102.623     
    976000   298.14962     -4.2533998      0              58.141021      2146.9231    
    977000   299.57994     -3.8535431      0              58.840203      2057.0673    
    978000   294.83666     -5.3706068      0              56.330502      2095.8293    
    979000   292.5724      -3.7231083      0              57.504155      2097.2204    
    980000   307.33081     -4.4207038      0              59.895083      2045.7493    
    981000   301.04492     -6.2919004      0              56.708426      2069.9577    
    982000   305.38116     -5.0662556      0              58.841525      2017.1506    
    983000   300.62442     -3.8395559      0              59.07277       2165.466     
    984000   299.55034     -4.7344314      0              57.95312       2077.2858    
    985000   303.76892     -3.5539032      0              60.01648       2137.725     
    986000   303.91612     -5.9323591      0              57.668829      2081.466     
    987000   297.27158     -6.0790215      0              56.131649      1971.5607    
    988000   304.81383     -4.5890642      0              59.199988      2234.8419    
    989000   305.31247     -3.8590781      0              60.034326      2132.9555    
    990000   299.89754     -6.8130943      0              55.947116      2137.485     
    991000   295.17501     -7.0765432      0              54.695374      1954.1768    
    992000   304.70791     -7.2102217      0              56.556666      1913.1621    
    993000   306.89318     -4.3882182      0              59.835986      2110.8304    
    994000   298.61851     -4.8877771      0              57.604767      2005.5329    
    995000   303.26729     -3.693927       0              59.771479      2117.7497    
    996000   306.56488     -3.1668118      0              60.988688      2098.2736    
    997000   297.64305     -5.1809328      0              57.107476      2044.1925    
    998000   300.85035     -6.0028817      0              56.956726      1886.4416    
    999000   302.6246      -4.9377498      0              58.393158      2003.6565    
   1000000   295.87096     -3.4918442      0              58.425715      2048.6292    
   1001000   304.88363     -4.2429835      0              59.560676      2129.0849    
   1002000   300.68804     -4.7458446      0              58.179796      2033.4376    
   1003000   311.41783     -3.4288821      0              61.742204      2113.2533    
   1004000   296.63557     -4.002853       0              58.074718      2055.9978    
   1005000   297.26443     -4.6591067      0              57.550066      2047.8626    
   1006000   297.65276     -3.4539374      0              58.836504      2140.6169    
   1007000   297.35212     -5.7116936      0              56.515832      2181.2337    
   1008000   306.4469      -4.3380773      0              59.792733      2143.0155    
   1009000   287.14187     -4.4688442      0              55.62196       2180.0557    
   1010000   304.41025     -4.1118075      0              59.592787      2161.3127    
   1011000   303.81864     -4.1693276      0              59.411461      2092.8156    
   1012000   298.03508     -4.9659159      0              57.404534      2092.883     
   1013000   304.82528     -5.596095       0              58.195355      2006.0367    
   1014000   297.83256     -4.0166529      0              58.311416      2137.2698    
   1015000   293.66096     -3.4396947      0              58.015374      2116.8216    
   1016000   302.4191      -5.1545193      0              58.133384      2077.8293    
   1017000   290.07573     -4.8702002      0              55.834578      2036.4418    
   1018000   298.53949     -6.1281141      0              56.347895      2054.3279    
   1019000   296.74776     -5.4546456      0              56.646404      2140.6207    
   1020000   292.90565     -5.1886362      0              56.108365      2093.014     
   1021000   299.13244     -4.5167174      0              58.083378      2092.7209    
   1022000   307.42098     -4.6579974      0              59.67666       2126.5106    
   1023000   296.35308     -5.2926943      0              56.725759      2005.9771    
   1024000   293.34004     -5.213622       0              56.174287      2087.6568    
   1025000   310.66256     -3.4471281      0              61.565901      2076.2692    
   1026000   297.73792     -3.9251216      0              58.38314       2168.4928    
   1027000   310.17732     -4.8661038      0              60.045378      2056.433     
   1028000   296.31067     -6.7383361      0              55.271243      1986.1721    
   1029000   299.766       -5.7050232      0              57.027661      2029.8834    
   1030000   299.81389     -5.1826782      0              57.560027      2072.9562    
   1031000   296.05337     -4.9668313      0              56.988902      2196.0903    
   1032000   302.65457     -3.7772643      0              59.559915      2143.6314    
   1033000   289.84548     -4.1805852      0              56.476008      2080.1817    
   1034000   298.31135     -5.6747175      0              56.753548      2024.065     
   1035000   298.60018     -3.6954804      0              58.793229      2188.0242    
   1036000   304.71736     -4.7613524      0              59.007513      2152.4119    
   1037000   302.61095     -5.2614541      0              58.066598      2083.6532    
   1038000   289.35847     -4.7239368      0              55.830739      2132.9048    
   1039000   308.8522      -4.0700305      0              60.564141      2144.3787    
   1040000   299.87437     -3.5152299      0              59.240132      2090.9644    
   1041000   297.38966     -3.9334033      0              58.301978      2083.8776    
   1042000   306.84121     -4.6115316      0              59.601796      2146.3943    
   1043000   302.1906      -5.3084481      0              57.931636      2065.1928    
   1044000   299.0887      -4.8493949      0              57.741548      2072.6739    
   1045000   306.7834      -5.1576643      0              59.043565      2128.1852    
   1046000   290.60118     -5.6327353      0              55.182005      2109.0262    
   1047000   294.54433     -4.0632924      0              57.576641      2055.0679    
   1048000   300.3923      -3.9892995      0              58.874451      2075.5717    
   1049000   303.90701     -4.5027801      0              59.096501      1986.0794    
   1050000   310.24476     -5.0277151      0              59.897881      2253.2942    
   1051000   296.30725     -4.1792129      0              57.82965       2079.1951    
   1052000   309.74827     -4.9520893      0              59.869605      2059.4109    
   1053000   299.41139     -4.2158936      0              58.44258       1994.7016    
   1054000   306.35532     -6.7206777      0              57.390967      2056.7081    
   1055000   299.86565     -5.1825479      0              57.570988      2132.8818    
   1056000   313.44487     -4.4842755      0              61.111013      2100.6061    
   1057000   298.29601     -4.4440857      0              57.98097       2111.037     
   1058000   297.12021     -2.7053073      0              59.473685      2140.8936    
   1059000   303.06259     -6.4598904      0              56.962678      1961.4693    
   1060000   296.79174     -4.8442402      0              57.266013      2115.143     
   1061000   300.70623     -4.6328986      0              58.296548      2021.4483    
   1062000   303.74842     -4.5261341      0              59.039958      2100.6462    
   1063000   290.0828      -7.2149181      0              53.491341      1911.1595    
   1064000   309.3925      -4.5993833      0              60.147858      2014.579     
   1065000   298.38814     -2.3564798      0              60.087856      2132.6385    
   1066000   299.87457     -4.6656862      0              58.089716      2179.2004    
   1067000   295.36986     -5.2867834      0              56.525909      2053.1051    
   1068000   301.67711     -4.1839317      0              58.948694      2109.8731    
   1069000   295.54614     -3.6423419      0              58.207241      2216.7033    
   1070000   296.35771     -5.5961686      0              56.423254      2061.1918    
   1071000   297.96916     -3.3841625      0              58.972492      2186.3865    
   1072000   301.03903     -5.2886923      0              57.710401      2053.0064    
   1073000   294.9039      -5.034959       0              56.680222      2049.1581    
   1074000   308.77799     -4.8726222      0              59.74602       2167.9038    
   1075000   296.39228     -4.3542145      0              57.672442      2070.2466    
   1076000   299.73076     -2.7389585      0              59.98635       2142.0753    
   1077000   313.51438     -5.48525        0              60.124587      2210.5726    
   1078000   288.06734     -5.1613719      0              55.123107      2024.7594    
   1079000   296.65657     -4.0255881      0              58.056377      2048.8861    
   1080000   299.00104     -4.6302772      0              57.94232       2199.1366    
   1081000   294.93744     -5.3835749      0              56.338624      2082.308     
   1082000   299.19956     -4.6596231      0              57.95452       2129.1262    
   1083000   294.62703     -5.1993512      0              56.457889      2009.546     
   1084000   295.97201     -4.2436048      0              57.695102      2248.4663    
   1085000   290.12959     -3.5738395      0              57.142211      2121.5179    
   1086000   309.85163     -4.0821605      0              60.761164      2143.7708    
   1087000   295.80695     -5.6061359      0              56.298028      2107.5309    
   1088000   306.31261     -3.597813       0              60.504893      2158.7664    
   1089000   310.38232     -5.7711408      0              59.183242      1907.9679    
   1090000   296.75155     -6.2403197      0              55.861523      2116.5199    
   1091000   307.47192     -5.371253       0              58.974065      2186.2383    
   1092000   298.93987     -5.4305879      0              57.129209      2121.8608    
   1093000   292.27244     -5.325606       0              55.838882      2038.1697    
   1094000   299.25523     -5.355377       0              57.270417      2075.2465    
   1095000   299.34011     -7.1900464      0              55.45351       2019.2089    
   1096000   309.05135     -4.0315937      0              60.644255      2116.6093    
   1097000   304.69161     -5.2128461      0              58.550629      2109.4298    
   1098000   308.28166     -2.3497348      0              62.165039      2152.6689    
   1099000   292.49018     -3.9255173      0              57.284538      2101.8821    
   1100000   303.77678     -4.8746079      0              58.69742       2015.4767    
   1101000   301.42428     -4.0465016      0              59.033213      2252.0699    
   1102000   303.92168     -3.7458642      0              59.856487      2172.8662    
   1103000   299.26582     -3.5542367      0              59.073772      2023.6296    
   1104000   284.20668     -4.6825631      0              54.793986      2094.1191    
   1105000   305.90476     -5.5380413      0              58.479314      2114.8648    
   1106000   297.77992     -5.7090181      0              56.608034      2068.0006    
   1107000   298.80975     -5.3625302      0              57.170036      2104.3535    
   1108000   289.31224     -4.3083297      0              56.236673      2036.302     
   1109000   302.46767     -5.389765       0              57.908301      1990.9687    
   1110000   302.48167     -4.1057816      0              59.195214      2036.8076    
   1111000   293.58172     -6.2911433      0              55.147343      1995.0051    
   1112000   300.43599     -4.2112218      0              58.661671      2101.1746    
   1113000   295.76743     -5.0706407      0              56.825253      2146.1604    
   1114000   291.54739     -3.6309612      0              57.381794      2076.8853    
   1115000   299.23757     -4.6100826      0              58.012014      1997.9095    
   1116000   291.33393     -4.657973       0              56.310113      2076.59      
   1117000   302.69056     -5.5703829      0              57.774329      2072.4988    
   1118000   297.74101     -3.6841146      0              58.624794      2152.3761    
   1119000   298.97213     -5.5550609      0              57.011486      2083.6175    
   1120000   296.93909     -4.4205517      0              57.720537      2127.9414    
   1121000   302.30111     -3.7227292      0              59.540481      2203.2398    
   1122000   304.85132     -5.2923537      0              58.504545      2113.8485    
   1123000   297.87191     -5.2371158      0              57.099186      2012.9179    
   1124000   299.54474     -4.0646326      0              58.621746      2112.1663    
   1125000   298.73923     -3.2975982      0              59.220211      2153.5035    
   1126000   305.19421     -2.8655964      0              61.00306       2188.7079    
   1127000   294.86153     -3.531948       0              58.174366      2156.2045    
   1128000   298.7328      -3.0555914      0              59.460872      2114.4118    
   1129000   292.2384      -3.9905773      0              57.166789      2110.6752    
   1130000   298.05692     -5.0904556      0              57.284565      2038.8406    
   1131000   298.08048     -5.1153933      0              57.264557      2105.5957    
   1132000   291.3311      -5.7208408      0              55.246652      2029.1475    
   1133000   299.49577     -4.6165506      0              58.05958       2117.4419    
   1134000   292.5372      -6.0711099      0              55.148787      2057.4743    
   1135000   298.63457     -3.8147691      0              58.681137      2099.724     
   1136000   301.47873     -3.9666457      0              59.124464      2193.2756    
   1137000   299.09522     -6.1361443      0              56.456163      2009.5289    
   1138000   296.0671      -3.2091676      0              58.749438      2083.9771    
   1139000   307.27259     -5.3271502      0              58.976452      2036.7202    
   1140000   291.81306     -4.4188296      0              56.649524      2103.0151    
   1141000   304.8041      -4.4841956      0              59.302822      2119.9057    
   1142000   302.79664     -3.8448166      0              59.522095      2062.3748    
   1143000   295.74058     -4.8364386      0              57.053835      2007.6168    
   1144000   307.49195     -4.1221809      0              60.227329      2226.9853    
   1145000   300.89144     -4.9202494      0              58.047956      2112.0725    
   1146000   302.96156     -2.8639718      0              60.537453      2149.8147    
   1147000   293.51794     -3.9592015      0              57.465936      2125.9115    
   1148000   306.25245     -5.3659734      0              58.724143      2070.385     
   1149000   299.95604     -6.245336       0              56.527117      2081.1384    
   1150000   308.69353     -4.4342341      0              60.166731      2031.7216    
   1151000   300.65898     -5.2251432      0              57.694416      2080.3206    
   1152000   298.74214     -3.837714       0              58.680704      2126.1504    
   1153000   292.89503     -4.8681329      0              56.426648      2098.7095    
   1154000   289.46179     -4.7788572      0              55.79744       1977.7694    
   1155000   299.1332      -4.5192455      0              58.081009      2165.9709    
   1156000   291.88539     -3.9441851      0              57.139305      2094.4237    
   1157000   305.66235     -3.4782461      0              60.488379      2153.4429    
   1158000   301.44603     -4.3113088      0              58.772957      2074.4333    
   1159000   302.87082     -3.654646       0              59.72779       2070.0235    
   1160000   299.29976     -3.2164503      0              59.418662      2033.9185    
   1161000   296.73056     -5.1338025      0              56.963648      2053.4737    
   1162000   309.8003      -4.7556585      0              60.076924      2151.0997    
   1163000   299.90125     -6.0356619      0              56.725325      2047.1879    
   1164000   294.25866     -4.4405245      0              57.139626      1993.2066    
   1165000   295.8082      -4.020977       0              57.883447      2077.9802    
   1166000   307.48997     -4.7871517      0              59.561943      2127.0448    
   1167000   289.30643     -4.9500412      0              55.593744      1897.1866    
   1168000   291.43757     -3.5548891      0              57.434885      2124.5716    
   1169000   303.30693     -4.9472281      0              58.526473      2116.5046    
   1170000   302.15738     -3.3379116      0              59.895221      2221.3197    
   1171000   305.51154     -3.3621451      0              60.57292       2126.6997    
   1172000   296.31055     -4.6397373      0              57.369816      2150.7671    
   1173000   309.64153     -4.8805533      0              59.918804      2144.2412    
   1174000   294.28119     -4.7763388      0              56.808525      2100.2432    
   1175000   303.64028     -4.462108       0              59.081355      2124.4232    
   1176000   299.81476     -6.9124954      0              55.830392      2068.4431    
   1177000   299.15738     -4.7391459      0              57.866169      2101.4903    
   1178000   293.16328     -5.269856       0              56.081061      2133.0759    
   1179000   294.32379     -3.6840533      0              57.909727      2143.4877    
   1180000   294.43856     -3.0794331      0              58.538365      2140.773     
   1181000   303.61398     -4.7500844      0              58.787873      2185.2329    
   1182000   296.0316      -4.0195106      0              57.931667      2018.9726    
   1183000   298.95517     -3.0351494      0              59.527849      2115.7016    
   1184000   300.532       -2.4948244      0              60.39816       2184.4232    
   1185000   301.66862     -3.0789794      0              60.05187       2193.5829    
   1186000   306.55779     -4.8218372      0              59.332178      2185.3384    
   1187000   300.10633     -5.199884       0              57.60402       2143.1644    
   1188000   290.14864     -5.0019269      0              55.71811       2111.9889    
   1189000   299.94182     -4.4529052      0              58.316572      2071.2102    
   1190000   301.09922     -6.0881298      0              56.92356       2127.127     
   1191000   306.09908     -3.4684335      0              60.589586      2200.0777    
   1192000   284.80446     -4.1783419      0              55.423306      2084.5504    
   1193000   306.16738     -4.6545183      0              59.417795      2213.338     
   1194000   295.16487     -6.9840122      0              54.785783      2012.6571    
   1195000   298.22072     -4.8820715      0              57.527228      2059.2409    
   1196000   301.604       -4.3821628      0              58.735163      2174.9385    
   1197000   290.85254     -5.2997111      0              55.567632      1985.5506    
   1198000   300.45536     -6.2329901      0              56.643957      2147.6853    
   1199000   298.13336     -3.923127       0              58.467891      2134.6411    
   1200000   300.63313     -4.831822       0              58.082327      2189.4136    
   1201000   307.61127     -3.7063157      0              60.668164      2095.0234    
   1202000   291.32613     -4.4809347      0              56.485519      2165.4778    
   1203000   300.03536     -4.210941       0              58.578111      2044.3484    
   1204000   299.78471     -6.1227364      0              56.613861      2019.1135    
   1205000   302.34465     -6.2168945      0              57.055427      2047.1352    
   1206000   294.19062     -4.3441346      0              57.221777      2104.0737    
   1207000   288.44925     -3.3264683      0              57.037934      2009.2076    
   1208000   301.1932      -3.28631        0              59.745046      2045.6014    
   1209000   296.82469     -2.9524279      0              59.164721      2138.5614    
   1210000   298.30428     -4.0152764      0              58.411509      2033.931     
   1211000   300.37536     -3.762902       0              59.097303      2109.0203    
   1212000   302.89097     -5.1289144      0              58.257737      2005.39      
   1213000   296.99896     -3.8708002      0              58.282819      2200.3852    
   1214000   302.2471      -3.6429923      0              59.608916      2156.4886    
   1215000   305.92585     -3.0655964      0              60.956172      2175.3736    
   1216000   282.23487     -4.8436323      0              54.220272      2090.8949    
   1217000   297.22172     -4.292185       0              57.90805       2127.0552    
   1218000   291.02338     -4.2632141      0              56.639882      2052.0434    
   1219000   301.38334     -4.1889628      0              58.882184      2131.4156    
   1220000   310.41647     -5.1936093      0              59.76792       2035.7821    
   1221000   307.69973     -4.8994173      0              59.493574      2127.9508    
   1222000   292.22925     -4.3450949      0              56.810356      2034.4769    
   1223000   298.99863     -4.9017794      0              57.670315      2093.4636    
   1224000   308.83214     -5.2832447      0              59.346728      2060.6       
   1225000   306.7277      -5.1504573      0              59.039116      2005.8957    
   1226000   303.93452     -3.4866061      0              60.118433      2253.2397    
   1227000   295.60476     -4.7396105      0              57.12224       2194.4943    
   1228000   306.10649     -4.170782       0              59.888789      2162.9843    
   1229000   307.01308     -4.7622449      0              59.487051      2124.0999    
   1230000   307.80088     -5.0813967      0              59.332763      2098.7997    
   1231000   292.66144     -4.4708735      0              56.775022      2028.0581    
   1232000   300.0909      -4.2985949      0              58.50208       2027.7935    
   1233000   294.06918     -4.3039677      0              57.23653       2111.4144    
   1234000   302.69303     -3.79404        0              59.551189      2157.3899    
   1235000   299.27017     -2.3006476      0              60.328271      2213.5895    
   1236000   296.35582     -4.6405246      0              57.378502      1994.4211    
   1237000   301.07572     -4.5225507      0              58.484221      2126.5692    
   1238000   303.11477     -4.7241672      0              58.70932       2057.8003    
   1239000   289.84219     -5.3150316      0              55.340874      2127.8238    
   1240000   285.43375     -5.9178387      0              53.815503      2120.8627    
   1241000   298.34448     -4.0443049      0              58.390893      2152.5078    
   1242000   296.75967     -5.6821416      0              56.421399      2007.4237    
   1243000   302.36418     -4.8965512      0              58.379858      2019.3937    
   1244000   300.80284     -4.5580046      0              58.391659      2111.2919    
   1245000   306.6239      -4.3429259      0              59.824924      2080.7612    
   1246000   304.27685     -5.8767065      0              57.799972      2026.796     
   1247000   305.33176     -4.714075       0              59.183367      2087.5533    
   1248000   308.37733     -3.0001446      0              61.534651      2193.522     
   1249000   296.25661     -4.0315182      0              57.966748      2117.4096    
   1250000   295.79062     -5.0756286      0              56.825118      2177.951     
   1251000   299.3917      -4.1415405      0              58.512813      2060.1812    
   1252000   303.97288     -5.6023305      0              58.010734      2115.1489    
   1253000   301.87193     -4.602976       0              58.57042       2130.0933    
   1254000   299.02456     -5.3564238      0              57.221096      2022.4749    
   1255000   282.18222     -6.1928136      0              52.860073      1980.0614    
   1256000   307.25943     -3.3228115      0              60.978037      2096.4336    
   1257000   298.11718     -4.1467581      0              58.240872      2122.7174    
   1258000   291.16477     -4.8838454      0              56.048839      2130.8826    
   1259000   301.36365     -4.0977853      0              58.969242      2069.5395    
   1260000   307.61444     -4.2779118      0              60.09723       2166.2098    
   1261000   303.9962      -5.627042       0              57.990905      2196.5262    
   1262000   294.33075     -3.5912924      0              58.003943      2168.4734    
   1263000   298.13964     -3.4597065      0              58.932624      2069.9652    
   1264000   300.54803     -5.2678153      0              57.628524      2031.9283    
   1265000   297.26975     -4.9089328      0              57.301354      2074.1937    
   1266000   307.52423     -3.2650218      0              61.091243      2178.8831    
   1267000   290.61208     -4.5721732      0              56.244849      2105.4415    
   1268000   309.45277     -4.7389754      0              60.020879      2136.1231    
   1269000   295.72307     -4.2519777      0              57.634633      2038.4398    
   1270000   296.24321     -3.7597076      0              58.235754      2207.1257    
   1271000   297.20391     -4.3935774      0              57.802932      2134.1916    
   1272000   296.88292     -4.8335708      0              57.295764      2029.297     
   1273000   310.73996     -4.9337134      0              60.095514      2126.5689    
   1274000   292.95537     -3.865932       0              57.441476      2106.1879    
   1275000   289.4811      -3.7227399      0              56.857599      2161.5431    
   1276000   299.68749     -4.5887036      0              58.127548      2083.0793    
   1277000   298.66141     -6.3337928      0              56.167729      2119.0236    
   1278000   293.41545     -6.4014466      0              55.002243      2027.4809    
   1279000   298.388       -5.6961025      0              56.748202      2222.0941    
   1280000   291.31397     -4.4979923      0              56.465915      2096.8793    
   1281000   295.89654     -3.7138379      0              58.209075      2076.5812    
   1282000   307.45996     -3.9290675      0              60.413746      2122.7413    
   1283000   303.17339     -3.9883082      0              59.457446      2080.1934    
   1284000   304.82199     -4.347956       0              59.442805      2260.0688    
   1285000   303.35292     -4.4943191      0              58.989007      2050.4046    
   1286000   300.91928     -4.8893955      0              58.084637      2102.6196    
   1287000   305.76235     -4.6211691      0              59.366382      2060.9378    
   1288000   290.19577     -4.1509955      0              56.578905      2070.2492    
   1289000   303.45609     -5.7513701      0              57.753545      2020.1025    
   1290000   296.86893     -4.2330488      0              57.893358      2115.0289    
   1291000   295.32909     -4.8581927      0              56.945969      2139.3031    
   1292000   298.79802     -4.0295188      0              58.500593      2064.3971    
   1293000   311.55655     -3.3335467      0              61.866571      2243.5324    
   1294000   303.56733     -5.1610174      0              58.367177      2064.8344    
   1295000   296.7261      -4.9114252      0              57.185092      1942.5409    
   1296000   307.75227     -6.4042086      0              57.999779      1916.9649    
   1297000   294.51616     -5.402202       0              56.231835      1975.1316    
   1298000   297.2176      -4.3373389      0              57.862035      2155.7447    
   1299000   299.78238     -4.6780562      0              58.058054      2095.745     
   1300000   300.0137      -6.2338571      0              56.550661      2012.6833    
   1301000   311.38005     -2.4889238      0              62.674257      2165.2979    
   1302000   299.55803     -2.5461868      0              60.142975      2217.5436    
   1303000   297.86056     -5.3903024      0              56.943624      2012.669     
   1304000   300.42404     -3.0715436      0              59.798849      2079.0241    
   1305000   292.00908     -3.1700194      0              57.939356      2143.19      
   1306000   299.48507     -4.9717735      0              57.702119      2110.6061    
   1307000   304.61804     -4.5200935      0              59.227987      2112.2768    
   1308000   303.94015     -3.6934376      0              59.912779      2167.2027    
   1309000   305.92459     -5.919865       0              58.101639      1979.4235    
   1310000   296.30705     -3.035303       0              58.973518      2062.279     
   1311000   308.51425     -4.8829553      0              59.680492      2097.6491    
   1312000   295.04474     -5.3638456      0              56.380809      2039.5552    
   1313000   306.2342      -5.0718355      0              59.014462      2029.05      
   1314000   306.2226      -4.2501922      0              59.833677      2127.8519    
   1315000   299.79902     -5.3441248      0              57.395467      2068.2312    
   1316000   291.27674     -3.7290116      0              57.227105      2145.3387    
   1317000   291.57358     -6.0263471      0              54.99189       2090.2948    
   1318000   303.6686      -6.1683405      0              57.381048      2012.6173    
   1319000   289.7809      -3.334536       0              57.308544      2079.2249    
   1320000   294.7297      -4.7786609      0              56.900064      2052.2763    
   1321000   303.72323     -4.6535646      0              58.907257      2085.3588    
   1322000   301.66678     -2.6793516      0              60.451112      2095.3917    
   1323000   306.13657     -3.1197209      0              60.946145      2012.1247    
   1324000   297.06532     -5.2756292      0              56.891876      2053.2939    
   1325000   295.59555     -4.296661       0              57.563264      2089.3327    
   1326000   295.68154     -2.8686496      0              59.009269      2091.7739    
   1327000   303.11152     -6.4138309      0              57.018976      2028.5417    
   1328000   313.55122     -4.9711944      0              60.646351      2133.5529    
   1329000   292.1283      -6.1362451      0              54.998079      1927.3534    
   1330000   301.31943     -5.3227938      0              57.73498       2115.3954    
   1331000   300.30714     -4.730689       0              58.115239      2125.8704    
   1332000   299.89414     -5.4976376      0              57.261861      2089.4377    
   1333000   293.85512     -5.8177569      0              55.677943      2029.9306    
   1334000   306.22951     -3.8935963      0              60.191718      2059.69      
   1335000   311.61799     -4.0275875      0              61.185387      2053.8316    
   1336000   297.54675     -5.4463455      0              56.821909      1990.2173    
   1337000   308.77092     -3.6886773      0              60.928485      2120.56      
   1338000   291.75697     -4.7529042      0              56.303712      2099.0665    
   1339000   306.18586     -4.070089       0              60.006093      2143.1674    
   1340000   293.75202     -5.2929613      0              56.181164      2028.5356    
   1341000   306.02855     -5.4254045      0              58.617856      2129.4043    
   1342000   306.17819     -3.9449935      0              60.129582      2153.7226    
   1343000   303.76966     -5.5681379      0              58.0024        2027.8008    
   1344000   291.42117     -5.2445272      0              55.741814      2096.7919    
   1345000   306.62681     -5.1180426      0              59.050418      2119.3776    
   1346000   292.34967     -5.9590336      0              55.221617      2153.6254    
   1347000   300.02732     -4.7156281      0              58.071742      1988.7319    
   1348000   300.76973     -2.9011703      0              60.041564      2112.1525    
   1349000   299.75868     -4.1490727      0              58.582078      2050.5616    
   1350000   295.82355     -3.2409307      0              58.666708      2060.4841    
   1351000   310.35414     -4.500167       0              60.448318      2153.0223    
   1352000   303.41296     -6.0698968      0              57.425993      2012.9169    
   1353000   305.28882     -2.6269607      0              61.261495      2196.9469    
   1354000   307.19351     -4.712679       0              59.574375      2058.983     
   1355000   308.59461     -3.66862        0              60.911646      2173.0676    
   1356000   302.01461     -4.9433338      0              58.25992       2029.3893    
   1357000   296.04588     -5.410046       0              56.544119      2048.6563    
   1358000   295.93575     -6.2143234      0              55.716794      2073.4706    
   1359000   301.23365     -5.5922559      0              57.447566      2024.926     
   1360000   301.30575     -4.9834287      0              58.071481      2067.0416    
   1361000   307.39753     -5.0301569      0              59.299594      2058.2176    
   1362000   294.23797     -4.3833788      0              57.192442      2018.8016    
   1363000   298.14854     -5.6702887      0              56.723905      1957.9828    
   1364000   306.00299     -6.0077806      0              58.030131      2112.2739    
   1365000   311.63829     -4.6847274      0              60.532496      2198.3899    
   1366000   307.88706     -3.76874        0              60.663455      2128.3929    
   1367000   291.70463     -3.1697367      0              57.875926      2133.4407    
   1368000   296.06537     -4.1128626      0              57.845381      2179.9303    
   1369000   301.16171     -6.2341753      0              56.79059       2050.4127    
   1370000   297.00701     -3.7821162      0              58.373186      2250.4485    
   1371000   302.86922     -5.9182489      0              57.463851      2163.8915    
   1372000   300.53624     -3.4354018      0              59.458471      2176.2024    
   1373000   305.12958     -2.7235186      0              61.131611      2226.2207    
   1374000   294.94497     -4.4429288      0              57.280846      2097.4339    
   1375000   288.48659     -6.44254        0              53.929677      1954.1081    
   1376000   306.73585     -4.4750185      0              59.716261      2170.6817    
   1377000   303.61176     -6.8992907      0              56.638202      2102.3812    
   1378000   303.87895     -4.3297566      0              59.263652      2160.3771    
   1379000   305.36785     -5.4652219      0              58.439772      2084.3878    
   1380000   293.17457     -6.1260593      0              55.22722       2014.3535    
   1381000   301.22583     -4.7072571      0              58.330927      2076.1403    
   1382000   291.89319     -4.2505985      0              56.834524      2155.6005    
   1383000   303.80559     -4.4686738      0              59.109384      2199.0698    
   1384000   298.20704     -3.8215009      0              58.584935      2063.5335    
   1385000   306.53145     -6.1394325      0              58.009071      2059.7333    
   1386000   309.70101     -4.0770532      0              60.734751      2046.1937    
   1387000   299.91613     -3.6938525      0              59.070248      2123.2332    
   1388000   289.82817     -5.9170103      0              54.735961      2079.0558    
   1389000   296.62855     -3.6463646      0              58.429737      2132.411     
   1390000   309.12016     -5.5244859      0              59.165763      2110.7836    
   1391000   295.80197     -4.168888       0              57.734233      2117.6996    
   1392000   306.71168     -4.9110771      0              59.275142      2143.4431    
   1393000   299.12771     -4.2694833      0              58.329624      2195.4606    
   1394000   303.03757     -4.872699       0              58.544632      2043.4131    
   1395000   308.75815     -4.4281685      0              60.18632       2185.8675    
   1396000   310.78381     -4.669379       0              60.369026      2074.0173    
   1397000   304.10915     -3.6749068      0              59.966676      2053.395     
   1398000   306.80526     -3.978684       0              60.227121      2100.6407    
   1399000   288.22106     -5.2489903      0              55.067657      2083.7694    
   1400000   291.80823     -3.3007444      0              57.766599      2078.5338    
   1401000   303.40218     -4.0314808      0              59.462152      2026.3251    
   1402000   301.85306     -5.1324753      0              58.036971      2136.676     
   1403000   302.91589     -4.734559       0              58.657308      2067.5222    
   1404000   302.60613     -3.8736032      0              59.45344       2140.072     
   1405000   309.55001     -3.3806302      0              61.399574      2088.7203    
   1406000   301.51389     -4.9232694      0              58.175198      2076.189     
   1407000   299.87971     -4.7088364      0              58.047642      2086.5437    
   1408000   298.50337     -4.1622187      0              58.306231      2135.3398    
   1409000   292.35365     -4.3652994      0              56.816184      2091.6655    
   1410000   300.90204     -4.2009266      0              58.769497      2135.9769    
   1411000   292.60665     -4.7656539      0              56.468777      2133.4752    
   1412000   299.97517     -3.36988        0              59.406577      2086.3556    
   1413000   306.78228     -4.5030139      0              59.697981      2078.1687    
   1414000   294.57582     -4.9188979      0              56.727624      2075.4434    
   1415000   293.58132     -4.6764529      0              56.761949      2126.6237    
   1416000   290.75323     -5.1178623      0              55.728698      2135.0748    
   1417000   307.11674     -3.7203411      0              60.550648      2118.3262    
   1418000   294.51514     -3.4205234      0              58.2133        2170.5805    
   1419000   319.93177     -5.496284       0              61.456533      2061.7962    
   1420000   298.17536     -4.4343144      0              57.965493      2072.4567    
   1421000   298.2932      -7.1953334      0              55.229133      1865.3808    
   1422000   295.82597     -4.4550761      0              57.453069      2022.5951    
   1423000   299.82641     -5.3300166      0              57.415309      2087.9213    
   1424000   286.52879     -2.3767251      0              57.585778      2065.3412    
   1425000   306.86152     -4.2354744      0              59.982103      2228.7393    
   1426000   315.21808     -5.4709113      0              60.495461      2008.1397    
   1427000   296.74837     -4.317119       0              57.784058      2096.4019    
   1428000   300.07028     -4.3126309      0              58.483729      2039.1838    
   1429000   304.59109     -4.5186387      0              59.223802      2116.1632    
   1430000   295.29893     -5.7991501      0              55.998699      2023.1498    
   1431000   297.19181     -5.7420125      0              56.451964      2054.2985    
   1432000   305.23866     -5.2098174      0              58.66814       2140.0876    
   1433000   312.45858     -6.9931655      0              58.395722      2028.731     
   1434000   296.24164     -5.7966311      0              56.198501      2107.9681    
   1435000   294.17546     -5.6929764      0              55.869763      2120.3224    
   1436000   303.68044     -5.3545985      0              58.197268      2104.6077    
   1437000   301.04427     -4.649192       0              58.350997      2083.5738    
   1438000   305.40695     -3.6101845      0              60.302991      2111.4797    
   1439000   301.6589      -4.9152925      0              58.213521      2026.6919    
   1440000   307.486       -4.8746175      0              59.473646      2043.7547    
   1441000   291.2027      -4.8245032      0              56.11612       2077.331     
   1442000   298.32627     -5.5619603      0              56.869428      2055.4697    
   1443000   291.32051     -4.5652908      0              56.399987      1998.0861    
   1444000   295.27469     -4.4366144      0              57.356163      2112.2625    
   1445000   310.98323     -2.9588508      0              62.121287      2221.1343    
   1446000   296.54049     -3.4810694      0              58.576603      2147.5039    
   1447000   301.08762     -3.5170825      0              59.492179      2089.3672    
   1448000   305.9402      -3.824811       0              60.19996       2115.3752    
   1449000   284.53843     -4.9622331      0              54.583743      2101.2951    
   1450000   291.72988     -3.8668664      0              57.18408       2212.8557    
   1451000   298.11531     -5.039886       0              57.347354      2061.736     
   1452000   297.76809     -5.5645171      0              56.750059      2012.5627    
   1453000   296.33711     -6.1821872      0              55.832924      2055.0661    
   1454000   306.03381     -5.0399973      0              59.004364      2102.2335    
   1455000   301.36094     -4.6255298      0              58.440929      2150.7466    
   1456000   304.64996     -4.8552894      0              58.899471      2148.497     
   1457000   299.80013     -5.2202963      0              57.51953       2135.9249    
   1458000   296.676       -5.0106426      0              57.075389      2134.0824    
   1459000   295.65981     -5.1545413      0              56.71883       2050.6915    
   1460000   302.42167     -4.6920262      0              58.596415      2007.1035    
   1461000   292.5221      -3.6985261      0              57.518209      2026.1631    
   1462000   298.24596     -4.0092626      0              58.405318      2034.8224    
   1463000   307.77331     -4.1509439      0              60.257446      2155.3197    
   1464000   301.32547     -2.4409617      0              60.618074      2201.5964    
   1465000   296.83816     -3.1457775      0              58.974189      2195.9572    
   1466000   309.12758     -5.847696       0              58.844106      2075.3659    
   1467000   297.81971     -6.4047798      0              55.9206        1968.6586    
   1468000   299.68619     -2.951978       0              59.764003      2255.277     
   1469000   291.11211     -3.0984274      0              57.823237      2223.6203    
   1470000   308.94318     -4.0973741      0              60.555837      2009.5604    
   1471000   301.0336      -6.4169699      0              56.580986      2136.8504    
   1472000   302.53168     -3.2597842      0              60.051679      2222.8238    
   1473000   299.21952     -5.3956886      0              57.222631      2016.9311    
   1474000   300.82551     -3.4721843      0              59.482225      2056.7452    
   1475000   297.74182     -3.9435612      0              58.365516      2032.8107    
   1476000   299.59898     -4.6770299      0              58.020701      2072.3002    
   1477000   300.7145      -3.797643       0              59.133534      2136.6428    
   1478000   301.37636     -3.808946       0              59.26074       2146.8328    
   1479000   293.39713     -5.2302617      0              56.169594      1912.9306    
   1480000   290.34911     -3.8348602      0              56.927129      2086.9108    
   1481000   299.21125     -4.026715       0              58.589874      2053.1531    
   1482000   290.52273     -5.2468113      0              55.551511      2028.812     
   1483000   296.21228     -5.55411        0              56.434878      2020.3311    
   1484000   296.77658     -5.8619027      0              56.245177      1983.3128    
   1485000   291.81967     -3.4652019      0              57.604534      2098.2021    
   1486000   301.69797     -4.1849468      0              58.952044      2039.9283    
   1487000   293.63581     -5.178596       0              56.271208      2030.8939    
   1488000   295.90076     -4.5794792      0              57.344317      2127.9052    
   1489000   293.80394     -6.7348221      0              54.750167      2033.7935    
   1490000   298.82758     -4.545423       0              57.990875      2087.6262    
   1491000   311.12463     -4.0801899      0              61.029537      2181.1355    
   1492000   299.63272     -5.1081296      0              57.596661      2025.3416    
   1493000   302.53753     -4.4472776      0              58.86541       2233.3983    
   1494000   303.3897      -3.5180662      0              59.972955      2236.5585    
   1495000   316.77712     -4.9929312      0              61.299705      2144.0293    
   1496000   294.65789     -5.7893059      0              55.874392      2047.7853    
   1497000   306.14954     -5.3033989      0              58.765182      2039.4082    
   1498000   302.34748     -6.2733231      0              56.999591      2052.2758    
   1499000   304.54044     -5.7848558      0              57.946983      2026.052     
   1500000   296.51543     -5.9693164      0              56.083112      2045.4454    
   1501000   302.9233      -4.5226276      0              58.87079       2075.0842    
   1502000   294.28018     -5.8100426      0              55.77461       1979.7591    
   1503000   299.99194     -5.6223871      0              57.157578      2032.7025    
   1504000   290.79545     -5.093103       0              55.762294      2085.4006    
   1505000   307.41765     -5.4167354      0              58.917224      1952.3677    
   1506000   299.02068     -3.8408421      0              58.735867      2193.873     
   1507000   294.28311     -4.7691292      0              56.816136      1918.8753    
   1508000   296.94434     -4.4496567      0              57.692531      2051.09      
   1509000   295.57892     -3.6729928      0              58.18345       2122.7343    
   1510000   292.1701      -3.1453792      0              57.997693      2230.466     
   1511000   312.53493     -5.2107173      0              60.194147      2030.9721    
   1512000   305.64466     -4.1788226      0              59.784099      2141.1737    
   1513000   305.28463     -5.5085214      0              58.379057      2134.8437    
   1514000   307.60807     -5.8104517      0              58.563357      2155.0401    
   1515000   302.54575     -4.0110013      0              59.303406      2125.7151    
   1516000   307.44324     -4.1133724      0              60.225942      2194.2297    
   1517000   301.02888     -6.3092163      0              56.687753      2147.6157    
   1518000   306.11491     -6.4738252      0              57.587508      2027.5415    
   1519000   298.30475     -4.9952773      0              57.431605      2066.4412    
   1520000   296.72364     -3.9334359      0              58.162565      2154.8917    
   1521000   302.62832     -4.6939243      0              58.637762      2075.7696    
   1522000   303.27423     -4.8395369      0              58.627322      2097.3821    
   1523000   307.65521     -3.1145054      0              61.26917       2175.9589    
   1524000   298.06219     -4.3559723      0              58.020151      2074.2819    
   1525000   310.50829     -4.5081131      0              60.472632      2082.9732    
   1526000   310.52346     -3.2271585      0              61.756761      2260.932     
   1527000   300.36528     -4.4857389      0              58.372356      2073.5471    
   1528000   306.72915     -6.4229526      0              57.766923      2087.4897    
   1529000   301.91846     -3.7260793      0              59.457053      2186.9437    
   1530000   302.95144     -4.8465138      0              58.552793      2106.8086    
   1531000   301.97763     -4.1660402      0              59.029475      1986.1099    
   1532000   301.54085     -4.0165376      0              59.087572      2175.1386    
   1533000   299.32218     -4.4932851      0              58.146518      2172.7395    
   1534000   297.80181     -6.4119301      0              55.909703      1958.801     
   1535000   294.27045     -4.7946458      0              56.787972      2174.513     
   1536000   297.60583     -5.0145169      0              57.266102      2039.1032    
   1537000   308.05929     -4.718515       0              59.749722      2116.7193    
   1538000   294.22432     -4.758801       0              56.814161      2076.0069    
   1539000   305.62712     -4.5013283      0              59.457923      2046.2002    
   1540000   298.47132     -4.2444599      0              58.217282      2077.4834    
   1541000   294.08007     -3.6819297      0              57.860847      2124.5255    
   1542000   304.99338     -3.3855845      0              60.441043      2108.5824    
   1543000   292.13296     -4.6047463      0              56.530554      2050.8736    
   1544000   291.39195     -4.9688981      0              56.01133       2015.4432    
   1545000   290.82389     -4.2199638      0              56.641384      2142.2117    
   1546000   302.16581     -4.1422608      0              59.092636      2183.5908    
   1547000   305.68187     -5.7769197      0              58.193791      2077.7867    
   1548000   295.92569     -4.4564241      0              57.472589      2091.059     
   1549000   298.80314     -5.8456771      0              56.685507      1998.7484    
   1550000   289.31954     -5.1299676      0              55.416562      2096.7414    
   1551000   300.04855     -5.0528911      0              57.738921      2090.4583    
   1552000   298.67992     -4.7695745      0              57.735821      2009.7046    
   1553000   306.60143     -5.8594562      0              58.303691      1939.594     
   1554000   306.18963     -5.1402201      0              58.936749      2124.4436    
   1555000   290.96331     -4.0494792      0              56.841045      2132.243     
   1556000   300.20623     -4.9681094      0              57.8567        2115.9678    
   1557000   301.22799     -4.9142284      0              58.124408      2074.2943    
   1558000   309.32505     -3.0938802      0              61.639246      2066.3579    
   1559000   300.47882     -5.4648462      0              57.41701       2059.6437    
   1560000   312.60657     -4.0857347      0              61.334121      2065.6579    
   1561000   299.06738     -4.8428356      0              57.743646      2184.0248    
   1562000   309.57321     -4.4843454      0              60.300714      2149.2775    
   1563000   304.52991     -5.0531898      0              58.676447      2053.6619    
   1564000   286.34053     -4.5555093      0              55.367597      2039.6198    
   1565000   305.0016      -3.6765946      0              60.151754      2237.0816    
   1566000   309.4543      -4.5066036      0              60.253571      2130.459     
   1567000   302.42773     -4.818293       0              58.471415      2069.3765    
   1568000   306.40424     -5.2168765      0              58.905005      2104.1778    
   1569000   305.38008     -4.8902198      0              59.017333      1975.9487    
   1570000   290.81215     -4.9116137      0              55.947277      2067.8474    
   1571000   297.05582     -3.6559074      0              58.509611      2198.631     
   1572000   313.10389     -5.56673        0              59.957202      2091.0627    
   1573000   301.02685     -4.0477946      0              58.948748      2124.4912    
   1574000   303.17885     -5.4577289      0              57.989169      2067.2418    
   1575000   296.48475     -3.4668593      0              58.57915       2139.1541    
   1576000   295.23789     -6.076015       0              55.70906       2023.3236    
   1577000   310.90837     -4.5682374      0              60.496233      1998.1203    
   1578000   291.79811     -5.6383778      0              55.426847      1969.5608    
   1579000   309.51304     -4.3003398      0              60.472127      2102.7824    
   1580000   308.92646     -3.9666089      0              60.683103      2213.5803    
   1581000   292.79991     -3.8660129      0              57.408861      2130.5777    
   1582000   289.85206     -3.5038736      0              57.154097      2063.3129    
   1583000   308.62627     -4.2442748      0              60.342616      2016.395     
   1584000   304.68873     -4.0688599      0              59.694013      2134.1521    
   1585000   313.92503     -3.5230003      0              62.172774      2090.2492    
   1586000   307.73883     -4.9165873      0              59.484587      2060.6038    
   1587000   298.03708     -5.9438907      0              56.426977      2095.7186    
   1588000   296.37973     -4.5416327      0              57.482399      2087.5275    
   1589000   301.18632     -3.4725244      0              59.557392      2101.5583    
   1590000   297.99815     -6.022357       0              56.340365      2065.6652    
   1591000   304.82198     -2.9550039      0              60.835754      2202.3098    
   1592000   307.31287     -3.7468401      0              60.565192      2167.8636    
   1593000   294.5424      -3.6797609      0              57.959768      2111.1547    
   1594000   300.07523     -5.0710055      0              57.72639       2043.8789    
   1595000   301.59136     -4.479135       0              58.635546      2077.5558    
   1596000   296.20148     -3.0840501      0              58.902678      2022.1487    
   1597000   295.25837     -3.6433397      0              58.146022      2229.3341    
   1598000   296.64158     -4.8834546      0              57.195374      2111.9729    
   1599000   302.19536     -4.6199679      0              58.621113      2231.9981    
   1600000   298.87559     -4.1906466      0              58.355698      2038.2239    
   1601000   294.99947     -3.3123634      0              58.422818      2134.59      
   1602000   300.91801     -5.7323986      0              57.241368      2042.6338    
   1603000   298.10473     -4.8947122      0              57.490313      2000.4928    
   1604000   295.75044     -4.8348503      0              57.057488      2171.2244    
   1605000   295.54775     -4.3069442      0              57.542975      2054.7133    
   1606000   299.37728     -4.9385096      0              57.712824      2055.4829    
   1607000   293.41012     -5.012094       0              56.39048       2042.1742    
   1608000   307.51114     -3.5190349      0              60.83449       2132.0019    
   1609000   309.12171     -4.7471424      0              59.943429      2108.9696    
   1610000   308.46522     -3.1880853      0              61.365101      2170.0601    
   1611000   284.87319     -6.2834183      0              53.332614      1908.2257    
   1612000   306.46        -4.3545687      0              59.778983      2145.4129    
   1613000   298.91809     -5.022652       0              57.532587      1990.2686    
   1614000   301.56898     -5.6529554      0              57.457041      2052.6001    
   1615000   298.96333     -4.5995509      0              57.965156      2078.0702    
   1616000   299.51669     -4.081146       0              58.599364      2121.8226    
   1617000   303.5893      -4.7483065      0              58.784486      2145.7101    
   1618000   288.82278     -3.6740274      0              56.768545      2120.8714    
   1619000   301.19144     -5.5116629      0              57.519326      2050.3752    
   1620000   303.28746     -4.1553751      0              59.314251      2088.1218    
   1621000   308.01372     -4.6139524      0              59.844748      2129.5509    
   1622000   303.50312     -3.3927159      0              60.122042      2144.0891    
   1623000   317.46289     -4.6824774      0              61.753673      2226.0606    
   1624000   299.34865     -5.6440254      0              57.001317      2094.5878    
   1625000   304.72018     -4.6429012      0              59.126554      2024.1829    
   1626000   287.14353     -4.3377495      0              55.753401      2179.9194    
   1627000   303.50316     -4.9010464      0              58.613721      2059.1121    
   1628000   283.82781     -3.1853898      0              56.211874      2074.9017    
   1629000   290.76217     -6.2284173      0              54.620013      2022.6819    
   1630000   293.34606     -3.4475656      0              57.941602      2079.8944    
   1631000   308.17244     -5.1151046      0              59.376812      2043.4215    
   1632000   299.31248     -5.0881853      0              57.549588      1969.6336    
   1633000   301.79395     -4.6473587      0              58.509717      1937.9562    
   1634000   299.42956     -4.0374195      0              58.624855      2116.2687    
   1635000   306.98751     -3.5967914      0              60.647152      2092.5911    
   1636000   299.07578     -4.4438334      0              58.144406      2113.6273    
   1637000   304.71472     -5.4228066      0              58.345505      2083.7892    
   1638000   292.1325      -2.9478089      0              58.187394      2252.7524    
   1639000   288.7108      -5.4163272      0              55.002809      2051.1328    
   1640000   298.32594     -6.494543       0              55.936776      2007.8235    
   1641000   307.14074     -4.6080141      0              59.667998      2023.3644    
   1642000   300.23281     -5.3453154      0              57.485057      2062.5927    
   1643000   299.37379     -5.0250606      0              57.625543      2154.4929    
   1644000   296.24697     -3.4523391      0              58.543908      2066.043     
   1645000   295.285       -4.1128363      0              57.682098      2108.9511    
   1646000   302.33564     -2.9570317      0              60.313406      2226.8004    
   1647000   299.56614     -4.8510922      0              57.839766      2073.4704    
   1648000   290.58975     -4.850921       0              55.961428      2147.5266    
   1649000   294.93434     -4.7662649      0              56.955285      2071.7122    
   1650000   313.13921     -4.2649943      0              61.26633       2054.6644    
   1651000   288.59655     -2.7292676      0              57.665959      2082.1457    
   1652000   296.23838     -3.6015025      0              58.392948      2066.6776    
   1653000   301.08923     -4.1901283      0              58.81947       2154.5846    
   1654000   301.98748     -3.8325805      0              59.364997      2059.184     
   1655000   297.24951     -3.8161763      0              58.389876      2075.4563    
   1656000   308.38428     -3.9683902      0              60.567858      2134.0422    
   1657000   299.10803     -4.1330054      0              58.461983      2048.2762    
   1658000   296.039       -2.7368016      0              59.215924      2170.7063    
   1659000   299.57347     -3.2286902      0              59.463701      2139.2339    
   1660000   298.91568     -5.002209       0              57.552526      1985.4572    
   1661000   284.67326     -4.7152936      0              54.858898      1983.1489    
   1662000   297.99461     -4.1116874      0              58.250293      2094.1764    
   1663000   302.79329     -4.0294781      0              59.336731      2107.973     
   1664000   303.49187     -5.6832037      0              57.8292        2001.0361    
   1665000   299.06784     -3.2444944      0              59.342082      2131.1375    
   1666000   300.40855     -3.8937376      0              58.973413      2005.1416    
   1667000   312.57813     -3.752897       0              61.661008      2263.1222    
   1668000   303.07248     -5.8181557      0              57.606482      2006.2173    
   1669000   298.52914     -4.2519108      0              58.221931      2131.999     
   1670000   304.52639     -2.8780323      0              60.850867      2153.299     
   1671000   301.54851     -6.4593272      0              56.646386      1992.0146    
   1672000   305.86667     -6.993488       0              57.015896      2024.7109    
   1673000   284.36355     -3.0423076      0              56.467071      2072.5457    
   1674000   299.76241     -4.4376293      0              58.294302      2098.2344    
   1675000   302.49498     -3.7202459      0              59.583536      2137.7932    
   1676000   300.86576     -3.885867       0              59.076966      2153.5795    
   1677000   300.54614     -5.9636004      0              56.932345      2050.5144    
   1678000   303.62538     -5.425596       0              58.114748      2046.4785    
   1679000   301.4481      -4.2467441      0              58.837954      2147.1837    
   1680000   294.625       -5.3445118      0              56.312302      2069.4761    
   1681000   300.94503     -5.5608319      0              57.41859       2061.4993    
   1682000   299.04566     -6.2316132      0              56.350323      2018.1447    
   1683000   299.19246     -3.7662542      0              58.846403      2247.5471    
   1684000   295.46397     -4.0237684      0              57.808619      2086.7115    
   1685000   301.95775     -5.5614809      0              57.629875      2131.8184    
   1686000   310.14169     -4.9208781      0              59.983148      2174.0994    
   1687000   299.08995     -4.4153652      0              58.175839      2168.1321    
   1688000   291.82485     -6.4212309      0              54.64959       2029.7683    
   1689000   298.16176     -3.7488247      0              58.648136      2161.6965    
   1690000   300.54376     -3.2206348      0              59.67481       2245.6705    
   1691000   300.54821     -3.5669071      0              59.32947       2129.9618    
   1692000   307.32798     -3.2009282      0              61.114266      2125.8368    
   1693000   299.76165     -4.8071667      0              57.924606      2113.998     
   1694000   301.63786     -4.6313512      0              58.49306       2011.6842    
   1695000   296.8739      -5.3636521      0              56.763795      2122.2528    
   1696000   294.54457     -5.7652574      0              55.874725      1946.1267    
   1697000   306.93099     -5.3287039      0              58.903412      2089.6219    
   1698000   297.55144     -3.6571262      0              58.612111      2160.0628    
   1699000   305.37349     -4.6850432      0              59.221132      2123.0111    
   1700000   306.55252     -5.4081673      0              58.744745      2083.1031    
   1701000   304.83762     -5.8172852      0              57.976746      2038.8914    
   1702000   304.03643     -5.1386824      0              58.487683      2119.5884    
   1703000   300.50807     -4.2709432      0              58.617034      2050.9674    
   1704000   297.67984     -5.6362275      0              56.65988       2082.6582    
   1705000   303.31377     -4.6833453      0              58.791788      2098.2047    
   1706000   297.40645     -2.8669707      0              59.371923      2193.972     
   1707000   314.25093     -3.8389552      0              61.92502       2232.1816    
   1708000   298.9679      -2.3940884      0              60.171574      2195.7178    
   1709000   301.89918     -5.6909755      0              57.488122      2037.1052    
   1710000   298.88355     -3.5925182      0              58.955491      2132.7672    
   1711000   300.32162     -4.0685817      0              58.780376      2133.4097    
   1712000   308.47402     -5.637738       0              58.917291      1972.1221    
   1713000   303.38375     -4.4447273      0              59.045051      2111.5069    
   1714000   297.95553     -4.7578317      0              57.595971      2009.2333    
   1715000   295.72979     -2.7976922      0              59.090324      2002.2862    
   1716000   300.0771      -4.0021877      0              58.7956        2131.389     
   1717000   296.73232     -3.3516464      0              58.746173      2165.4706    
   1718000   291.40624     -4.9305954      0              56.052622      2110.1541    
   1719000   293.74212     -4.4719364      0              57.000117      2024.2577    
   1720000   299.6735      -5.0319         0              57.681425      2120.0943    
   1721000   298.98264     -3.9554947      0              58.613253      2142.3483    
   1722000   300.55518     -6.3402375      0              56.557599      2123.8851    
   1723000   308.46667     -5.3761397      0              59.177351      2141.4446    
   1724000   301.44881     -4.3672314      0              58.717618      2008.8828    
   1725000   299.62808     -2.2666322      0              60.437187      2195.3291    
   1726000   311.11272     -4.1867776      0              60.920458      2143.6093    
   1727000   292.99286     -3.3842681      0              57.930985      2002.9876    
   1728000   309.57793     -4.8501146      0              59.935932      2115.6234    
   1729000   298.37155     -5.3143118      0              57.126551      2095.8298    
   1730000   300.46725     -6.1280829      0              56.751352      2023.1513    
   1731000   288.56558     -3.7999269      0              56.588819      2059.003     
   1732000   306.08826     -4.7731395      0              59.282615      2014.1717    
   1733000   288.3062      -5.3582263      0              54.976239      2040.6448    
   1734000   301.0812      -3.3657262      0              59.642192      2132.3765    
   1735000   310.33765     -3.0634648      0              61.881569      2202.472     
   1736000   298.1311      -3.9749016      0              58.415641      2196.772     
   1737000   291.2031      -4.0500532      0              56.890653      2106.7622    
   1738000   306.99795     -4.2761816      0              59.969947      2040.9918    
   1739000   296.75567     -4.8403284      0              57.262375      2137.1959    
   1740000   299.77818     -4.9248812      0              57.810351      2115.1513    
   1741000   290.57189     -3.7657464      0              57.042866      2150.5588    
   1742000   308.71465     -3.422478       0              61.182908      2055.6293    
   1743000   298.32617     -5.7266526      0              56.704714      2042.3412    
   1744000   290.87533     -4.98263        0              55.889483      2085.1372    
   1745000   307.91313     -5.6821822      0              58.755468      2039.4762    
   1746000   300.23742     -2.9630731      0              59.868264      2079.5034    
   1747000   304.64771     -4.2342801      0              59.520009      2125.6489    
   1748000   307.43117     -4.8100718      0              59.526719      2069.7731    
   1749000   298.38872     -3.4042223      0              59.040235      2213.4236    
   1750000   305.57317     -3.8281809      0              60.119781      2174.107     
   1751000   296.28141     -5.8119283      0              56.191527      2052.2888    
   1752000   297.12687     -6.595913       0              55.584473      2021.3749    
   1753000   313.09813     -6.5656723      0              58.957055      2104.3456    
   1754000   298.47996     -6.1608345      0              56.302715      1994.5775    
   1755000   308.39489     -2.8871484      0              61.651322      2121.0071    
   1756000   301.81228     -4.3559044      0              58.805007      1998.3273    
   1757000   298.82155     -5.8638096      0              56.671226      2097.7825    
   1758000   300.49809     -5.3289715      0              57.556917      2004.9297    
   1759000   305.32837     -4.4333622      0              59.46337       2042.069     
   1760000   306.4874      -4.1220882      0              60.017197      2054.6843    
   1761000   303.94948     -5.9861303      0              57.622039      2115.6754    
   1762000   304.00767     -3.8724259      0              59.747919      2141.1069    
   1763000   307.2886      -5.4698361      0              58.837117      2027.1964    
   1764000   313.25454     -4.5934954      0              60.961964      2146.2498    
   1765000   300.0913      -5.1965534      0              57.604206      2035.4729    
   1766000   297.87665     -4.2414692      0              58.095825      2045.2446    
   1767000   297.3433      -4.5817024      0              57.643977      2132.4723    
   1768000   300.75987     -5.3783972      0              57.562275      2014.3371    
   1769000   295.88545     -6.0145821      0              55.906009      1993.3279    
   1770000   290.22256     -5.5091474      0              55.226359      2170.6784    
   1771000   296.38723     -5.1771641      0              56.848436      2073.2636    
   1772000   294.76481     -4.6938671      0              56.992206      2012.6035    
   1773000   305.83354     -4.7220257      0              59.280423      1985.8652    
   1774000   298.18522     -4.1290353      0              58.272835      2154.4823    
   1775000   288.36454     -5.2268388      0              55.119836      2012.4237    
   1776000   299.17959     -4.6452496      0              57.964715      2132.9274    
   1777000   300.0746      -2.5692388      0              60.228026      2116.1537    
   1778000   298.15049     -4.0267723      0              58.367829      2166.1326    
   1779000   305.86654     -3.284102       0              60.725255      2088.8609    
   1780000   298.37533     -4.8030931      0              57.638562      2078.1608    
   1781000   297.60312     -6.255274       0              56.024778      1989.7225    
   1782000   298.88351     -3.9612013      0              58.586802      2062.8917    
   1783000   315.80182     -5.2660548      0              60.822479      1909.3013    
   1784000   298.5217      -4.5776557      0              57.89463       2074.0257    
   1785000   302.56664     -3.4252317      0              59.893547      2149.5325    
   1786000   309.25124     -4.3130439      0              60.404636      2125.9208    
   1787000   300.68587     -4.6517716      0              58.273413      2064.7722    
   1788000   297.02752     -4.5622116      0              57.597383      2097.7968    
   1789000   303.55863     -3.571818       0              59.954556      2174.1147    
   1790000   298.06187     -3.0148256      0              59.36123       2091.3432    
   1791000   292.26092     -5.3001237      0              55.861954      2027.9622    
   1792000   288.33863     -5.2865746      0              55.054678      2036.0955    
   1793000   299.03542     -5.1870478      0              57.392744      2080.2304    
   1794000   289.62911     -3.3049846      0              57.306328      2138.5606    
   1795000   316.01017     -4.8781003      0              61.254036      2218.1784    
   1796000   297.80506     -4.3065588      0              58.015753      2191.9147    
   1797000   289.72547     -3.8511679      0              56.780312      2032.109     
   1798000   304.5174      -3.6199413      0              60.107076      2228.2687    
   1799000   297.7681      -5.9429931      0              56.371585      1982.431     
   1800000   301.27351     -3.5572097      0              59.490952      2114.0332    
   1801000   305.63543     -2.6341915      0              61.3268        2229.6125    
   1802000   296.70212     -3.4687         0              58.622798      2098.7999    
   1803000   290.08272     -6.1464231      0              54.559818      2073.9703    
   1804000   297.65772     -4.7054922      0              57.585986      2100.2873    
   1805000   303.62196     -4.8612412      0              58.678387      1994.9687    
   1806000   305.6459      -6.7250147      0              57.238168      2085.094     
   1807000   300.89437     -2.5144363      0              60.454383      2176.1575    
   1808000   296.48366     -4.3104414      0              57.735339      2142.0943    
   1809000   297.40116     -6.0981535      0              56.139635      2091.2841    
   1810000   299.70868     -5.3141512      0              57.406536      1966.3837    
   1811000   309.9269      -4.820444       0              60.038633      2166.5903    
   1812000   295.19136     -4.071195       0              57.704143      2108.2836    
   1813000   312.89982     -4.930497       0              60.550729      2194.4173    
   1814000   291.50227     -3.9956183      0              57.007696      1939.4799    
   1815000   303.16522     -4.1766876      0              59.267357      2105.7088    
   1816000   300.05597     -3.4245766      0              59.368788      2136.7884    
   1817000   299.10284     -3.8725275      0              58.721374      2067.09      
   1818000   297.8201      -4.6120699      0              57.71339       2008.6265    
   1819000   286.84724     -5.6197127      0              54.409433      2079.5839    
   1820000   291.74088     -5.678083       0              55.375165      1948.5648    
   1821000   302.66124     -3.5804158      0              59.758161      2219.2696    
   1822000   297.55723     -3.1639091      0              59.10654       2169.8983    
   1823000   289.74692     -5.1206662      0              55.515302      2082.9089    
   1824000   297.84332     -4.7081707      0              57.622149      2055.4597    
   1825000   304.6568      -6.2448692      0              57.511322      2088.8931    
   1826000   299.68183     -5.4171277      0              57.297941      2128.7093    
   1827000   290.81815     -5.0437594      0              55.816387      2065.9185    
   1828000   301.95342     -6.218634       0              56.971814      2100.7829    
   1829000   289.69945     -4.8813196      0              55.744714      2020.4647    
   1830000   297.90303     -4.7470147      0              57.5958        2015.0552    
   1831000   313.59573     -4.0627119      0              61.564149      2238.0316    
   1832000   308.26719     -5.2567552      0              59.254991      2044.515     
   1833000   302.26582     -4.3101252      0              58.945699      2118.3822    
   1834000   289.90937     -3.9019675      0              56.767998      2165.4267    
   1835000   308.63611     -3.841186       0              60.747765      2124.7298    
   1836000   297.63647     -4.2154986      0              58.071532      1968.7105    
   1837000   299.09703     -4.5609561      0              58.031731      2073.7458    
   1838000   296.2235      -5.1708034      0              56.820532      2164.1724    
   1839000   294.3559      -5.0877707      0              56.512728      2055.6478    
   1840000   301.36628     -4.1168867      0              58.950691      2122.0922    
   1841000   301.5292      -3.8701969      0              59.231475      2101.8822    
   1842000   302.25637     -3.6166916      0              59.637156      2041.4709    
   1843000   308.83475     -4.6299367      0              60.000584      2024.1768    
   1844000   288.11289     -4.9705011      0              55.32351       2004.768     
   1845000   301.28971     -5.9635006      0              57.088052      2120.0308    
   1846000   298.19668     -4.4469581      0              57.957309      2044.3125    
   1847000   296.09436     -5.0299856      0              56.934325      2067.3411    
   1848000   304.91409     -4.203715       0              59.60632       2106.9327    
   1849000   303.26091     -5.4385206      0              58.02555       2075.3686    
   1850000   299.68403     -4.9822582      0              57.73327       2067.0665    
   1851000   301.19248     -5.6680589      0              57.363146      2118.7947    
   1852000   294.24625     -5.4838936      0              56.093658      2038.7968    
   1853000   305.44236     -3.9246783      0              59.995909      2086.2968    
   1854000   303.24106     -3.7732654      0              59.686651      2057.1329    
   1855000   296.35993     -4.0076602      0              58.012227      2043.5905    
   1856000   305.75495     -3.1057633      0              60.88024       2163.8004    
   1857000   304.17213     -4.94563        0              58.709134      2120.3755    
   1858000   300.11327     -4.1081943      0              58.697162      2045.8686    
   1859000   305.5458      -6.2361519      0              57.706081      2119.353     
   1860000   307.05351     -4.1940147      0              60.06374       2197.8471    
   1861000   306.35104     -6.2330076      0              57.877741      2004.5693    
   1862000   302.26358     -5.3043582      0              57.950998      2185.2322    
   1863000   301.12373     -4.3469845      0              58.669833      2078.7025    
   1864000   302.35018     -3.1824327      0              60.091048      2153.9896    
   1865000   309.2633      -3.6912462      0              61.028957      2150.587     
   1866000   305.26777     -3.7810925      0              60.102957      2188.834     
   1867000   285.60878     -4.9182899      0              54.85168       2113.9595    
   1868000   305.35265     -5.6944934      0              58.207319      2085.4775    
   1869000   298.06203     -5.0566949      0              57.319395      2139.0219    
   1870000   304.60713     -3.6457224      0              60.100075      2046.9373    
   1871000   317.1455      -3.5444453      0              62.825283      2113.4611    
   1872000   295.17934     -6.696403       0              55.07642       2030.0499    
   1873000   308.12768     -7.6584755      0              56.824075      1982.6261    
   1874000   288.29688     -4.9516702      0              55.380845      2022.1055    
   1875000   298.0213      -6.1083328      0              56.259233      2157.091     
   1876000   306.02143     -4.3699874      0              59.671783      2118.1363    
   1877000   297.6093      -3.6568821      0              58.624462      2228.9348    
   1878000   298.07006     -4.1507324      0              58.227037      2177.9479    
   1879000   294.60709     -5.2773366      0              56.37573       2012.217     
   1880000   297.27332     -5.062054       0              57.148981      2010.3012    
   1881000   311.79992     -5.0659384      0              60.185109      2186.0695    
   1882000   302.1228      -5.7626907      0              57.463205      2114.9668    
   1883000   305.48032     -6.3762711      0              57.552259      2070.7616    
   1884000   292.69445     -5.4138284      0              55.838975      2089.965     
   1885000   308.36627     -3.3110843      0              61.221396      2176.7576    
   1886000   301.72283     -4.4505589      0              58.691635      2086.7433    
   1887000   297.55061     -4.135732       0              58.133332      2151.4194    
   1888000   310.07088     -3.0502983      0              61.838909      2183.666     
   1889000   299.48667     -4.2592811      0              58.414946      2030.4686    
   1890000   297.39356     -3.5719494      0              58.664247      2103.4464    
   1891000   311.21518     -4.9022359      0              60.226442      2134.8549    
   1892000   296.9351      -5.3506599      0              56.789595      2109.1892    
   1893000   296.23006     -5.8880199      0              56.104689      1995.4895    
   1894000   294.73136     -4.6230015      0              57.056072      2186.3397    
   1895000   290.00366     -3.6629747      0              57.026722      2043.4275    
   1896000   291.18595     -6.7851026      0              54.152015      2055.642     
   1897000   311.09546     -4.2477477      0              60.855875      2141.55      
   1898000   304.86026     -5.1791011      0              58.619668      1983.1546    
   1899000   301.18998     -5.4306862      0              57.599996      2127.3158    
   1900000   297.92859     -3.7858693      0              58.562294      2071.9736    
   1901000   309.01906     -4.797958       0              59.871132      2168.718     
   1902000   297.32065     -4.2544999      0              57.966439      2011.3492    
   1903000   294.9796      -4.8963736      0              56.834649      1990.7445    
   1904000   302.45347     -4.2928587      0              59.002238      2053.3016    
   1905000   297.16984     -3.0427992      0              59.14658       2140.6525    
   1906000   289.45662     -6.0519099      0              54.523307      2060.216     
   1907000   298.95973     -5.2513009      0              57.312652      2084.901     
   1908000   300.77095     -5.0846842      0              57.858307      2061.827     
   1909000   314.79787     -4.7175815      0              61.160853      2138.1589    
   1910000   295.00726     -4.2822025      0              57.454608      2083.1685    
   1911000   298.66783     -4.6650059      0              57.837861      1979.7123    
   1912000   294.48986     -4.6620349      0              56.966498      2115.7601    
   1913000   301.00723     -4.5279329      0              58.464504      2135.0439    
   1914000   312.88228     -5.1958052      0              60.28175       2121.4128    
   1915000   306.29883     -4.6085121      0              59.49131       2045.5303    
   1916000   290.68978     -4.8561487      0              55.977133      2053.5922    
   1917000   298.8314      -4.8137287      0              57.723368      2132.7983    
   1918000   296.77026     -4.0465823      0              58.059175      2128.5413    
   1919000   287.92516     -4.7743137      0              55.480411      2022.5324    
   1920000   296.11681     -3.9068252      0              58.062184      2095.4367    
   1921000   307.12445     -3.2231606      0              61.049441      2195.758     
   1922000   299.81401     -5.0840903      0              57.65864       1982.955     
   1923000   302.8072      -5.1742958      0              58.194825      2101.5823    
   1924000   306.60488     -4.8724377      0              59.291433      2147.3663    
   1925000   309.43564     -3.2886331      0              61.467636      2219.27      
   1926000   305.3739      -3.8563128      0              60.049946      2152.5709    
   1927000   302.4784      -4.3376001      0              58.962712      2172.6299    
   1928000   295.85683     -4.1777926      0              57.736809      2015.89      
   1929000   309.50735     -3.6547191      0              61.116556      2099.3659    
   1930000   294.51892     -4.8179733      0              56.816641      2200.051     
   1931000   299.82122     -3.4484507      0              59.295788      2045.4029    
   1932000   298.77581     -4.2261936      0              58.299271      2181.7323    
   1933000   302.91163     -4.0200775      0              59.370897      2211.0047    
   1934000   310.33915     -3.4954898      0              61.449859      2222.0133    
   1935000   292.26177     -5.9842359      0              55.17802       2108.2429    
   1936000   295.35551     -6.8513921      0              54.958299      2001.264     
   1937000   311.73503     -6.3167571      0              58.920711      2028.7483    
   1938000   294.73788     -5.3501142      0              56.330323      2088.18      
   1939000   308.35288     -5.0662886      0              59.46339       2085.608     
   1940000   298.20566     -5.0516709      0              57.354475      2078.1129    
   1941000   291.75286     -4.8467662      0              56.208989      1948.4317    
   1942000   303.13909     -4.6433865      0              58.79519       2132.3666    
   1943000   294.30208     -5.4092549      0              56.179981      2037.3076    
   1944000   302.20049     -5.0677701      0              58.174384      2117.554     
   1945000   297.90881     -4.6526174      0              57.691407      2025.6793    
   1946000   304.68769     -6.2443375      0              57.518317      2091.2657    
   1947000   297.69438     -5.041303       0              57.257847      2138.962     
   1948000   293.70111     -5.891899       0              55.57157       2008.5363    
   1949000   304.9263      -4.8145509      0              58.998038      2137.8785    
   1950000   302.14481     -5.4652733      0              57.765228      2021.0812    
   1951000   302.66315     -3.3620743      0              59.976901      2133.4003    
   1952000   288.95662     -4.1097183      0              56.360863      2065.8043    
   1953000   301.63413     -6.9459641      0              56.177666      1945.479     
   1954000   300.60331     -6.7367622      0              56.171146      2043.4472    
   1955000   287.87842     -5.8051447      0              54.439799      2033.284     
   1956000   309.58054     -4.4647494      0              60.321844      2160.1937    
   1957000   292.23992     -4.2110085      0              56.946676      2091.1553    
   1958000   282.30907     -2.4134003      0              56.666034      2151.9443    
   1959000   294.24347     -5.89965        0              55.677321      1989.3658    
   1960000   297.3103      -5.2129372      0              57.005837      1980.6164    
   1961000   302.19481     -6.1035876      0              57.137378      2039.1394    
   1962000   301.97994     -3.6885407      0              59.507458      2072.9146    
   1963000   290.14494     -3.6329594      0              57.086303      2034.1347    
   1964000   294.88311     -3.9063846      0              57.804446      2121.0506    
   1965000   286.61032     -4.8264478      0              55.153117      2090.8655    
   1966000   301.71857     -4.7039069      0              58.437395      2066.1822    
   1967000   319.02238     -4.4862909      0              62.276216      2084.0055    
   1968000   299.79834     -4.7011297      0              58.038321      2080.3199    
   1969000   301.40818     -3.7800913      0              59.296254      2212.9964    
   1970000   293.04674     -4.7825709      0              56.543959      2073.9432    
   1971000   288.71028     -3.9688931      0              56.450136      2199.1135    
   1972000   300.68753     -4.4065965      0              58.518936      2088.5677    
   1973000   299.4433      -4.0066171      0              58.658534      2087.3116    
   1974000   297.61792     -5.5161113      0              56.767039      2040.4317    
   1975000   297.72812     -4.3992855      0              57.906926      2054.1811    
   1976000   293.7538      -5.3273088      0              56.147187      2170.7366    
   1977000   297.25506     -4.5545386      0              57.652675      2120.4133    
   1978000   303.66169     -3.6319109      0              59.916032      2104.7825    
   1979000   292.13349     -3.8372335      0              57.298176      2144.9691    
   1980000   290.45788     -5.2967713      0              55.487982      1999.9173    
   1981000   292.80452     -3.6133518      0              57.662487      2100.4466    
   1982000   299.97784     -4.1879496      0              58.589065      2125.1876    
   1983000   308.72672     -4.6102875      0              59.997624      2104.4547    
   1984000   288.92635     -3.800479       0              56.663767      2200.6558    
   1985000   301.9281      -5.0775146      0              58.107636      2078.7982    
   1986000   307.38949     -4.4828754      0              59.845191      2133.6174    
   1987000   292.39498     -4.1317669      0              57.058366      2102.8937    
   1988000   292.3626      -4.6942104      0              56.489147      2012.8788    
   1989000   291.76984     -7.6501913      0              53.409118      1978.7443    
   1990000   301.25901     -3.3789929      0              59.666136      2124.952     
   1991000   292.04229     -4.9039179      0              56.212407      2054.933     
   1992000   298.2595      -5.5999945      0              56.817419      2141.7649    
   1993000   295.07047     -5.2172218      0              56.532818      2083.9766    
   1994000   306.35847     -5.1486915      0              58.963612      2053.4271    
   1995000   299.01069     -3.7422884      0              58.832329      2087.3974    
   1996000   297.67119     -4.3742473      0              57.920051      2114.5791    
   1997000   302.7175      -3.8431916      0              59.507158      2023.3592    
   1998000   309.48951     -4.6778277      0              60.089716      2069.3506    
   1999000   294.35005     -2.9652573      0              58.634018      2079.6464    
   2000000   301.73174     -3.3150721      0              59.828985      2137.7346    
   2000101   303.29675     -3.8147313      0              59.656838      2077.7549    
Loop time of 13967.8 on 16 procs for 2000000 steps with 1620 atoms

Performance: 6.186 ns/day, 3.880 hours/ns, 143.187 timesteps/s
99.9% CPU use with 16 MPI tasks x 1 OpenMP threads

MPI task timing breakdown:
Section |  min time  |  avg time  |  max time  |%varavg| %total
---------------------------------------------------------------
Pair    | 10958      | 11880      | 12903      | 626.2 | 85.06
Bond    | 1.5391     | 1.606      | 1.7224     |   3.5 |  0.01
Neigh   | 16.117     | 16.72      | 17.287     |  11.2 |  0.12
Comm    | 991.43     | 2014.6     | 2937.7     |1521.4 | 14.42
Output  | 1.11       | 1.1105     | 1.1117     |   0.0 |  0.01
Modify  | 28.265     | 28.666     | 28.899     |   3.6 |  0.21
Other   |            | 24.74      |            |       |  0.18

Nlocal:         101.25 ave         109 max          92 min
Histogram: 1 0 3 0 1 4 2 3 1 1
Nghost:        5066.56 ave        5106 max        5042 min
Histogram: 1 2 5 1 1 4 1 0 0 1
Neighs:        51648.6 ave       55859 max       44620 min
Histogram: 1 1 0 2 1 1 2 3 2 3

Total # of neighbors = 826377
Ave neighs/atom = 510.10926
Ave special neighs/atom = 0
Neighbor list builds = 10406
Dangerous builds = 0
comm_modify cutoff 27.58
compute myRDF all rdf 1129 cutoff 22.58
fix 2 all ave/time 1 1 1 c_myRDF[*] file ljg2_nvt_48rdf.rdf mode vector
run 0 pre yes post no
Generated 0 of 0 mixed pair_coeff terms from geometric mixing rule
WARNING: Compute rdf cutoff less than neighbor cutoff - forcing a needless neighbor list build (src/compute_rdf.cpp:179)
Neighbor list info ...
  update every 1 steps, delay 0 steps, check yes
  max neighbors/atom: 200000, page size: 2000000000
  master list distance cutoff = 27
  ghost atom cutoff = 27.58
  binsize = 13.5, bins = 4 5 4
  4 neighbor lists, perpetual/occasional/extra = 3 1 0
  (1) pair lj/cut, perpetual
      attributes: half, newton on
      pair build: half/bin/newton
      stencil: half/bin/3d
      bin: standard
  (2) pair gauss/cut, perpetual, copy from (1)
      attributes: half, newton on
      pair build: copy
      stencil: none
      bin: none
  (3) pair gauss/cut, perpetual, copy from (1)
      attributes: half, newton on
      pair build: copy
      stencil: none
      bin: none
  (4) compute rdf, occasional
      attributes: half, newton on, cut 24.58
      pair build: half/bin/newton
      stencil: half/bin/3d
      bin: standard
Per MPI rank memory allocation (min/avg/max) = 3.053e+04 | 3.053e+04 | 3.053e+04 Mbytes
   Step          Temp          E_pair         E_mol          TotEng         Press     
   2000101   303.29675     -3.8147313      0              59.656838      2077.7549    
Loop time of 4.71712e-06 on 16 procs for 0 steps with 1620 atoms

uncompute myRDF
unfix 2
write_data ljg2_nvt_48/ca_md.data nocoeff nofix
System init for write_data ...
Generated 0 of 0 mixed pair_coeff terms from geometric mixing rule
Neighbor list info ...
  update every 1 steps, delay 0 steps, check yes
  max neighbors/atom: 200000, page size: 2000000000
  master list distance cutoff = 27
  ghost atom cutoff = 27.58
  binsize = 13.5, bins = 4 5 4
  3 neighbor lists, perpetual/occasional/extra = 3 0 0
  (1) pair lj/cut, perpetual
      attributes: half, newton on
      pair build: half/bin/newton
      stencil: half/bin/3d
      bin: standard
  (2) pair gauss/cut, perpetual, copy from (1)
      attributes: half, newton on
      pair build: copy
      stencil: none
      bin: none
  (3) pair gauss/cut, perpetual, copy from (1)
      attributes: half, newton on
      pair build: copy
      stencil: none
      bin: none
Total wall time: 3:52:49
