region box block 0 52.794504272175 0 54.794296100667 0 45.195295323908
units metal
dimension 3
boundary p p p
atom_style full
create_box 1 box
Created orthogonal box = (0 0 0) to (52.794504 54.794296 45.195295)
  2 by 4 by 2 MPI processor grid
create_atoms 1 random 1620 47 box
Created 1620 atoms
  using lattice units in orthogonal box = (0 0 0) to (52.794504 54.794296 45.195295)
  create_atoms CPU = 0.003 seconds
mass 1 40.078
pair_style hybrid/overlay lj/cut 25 gauss/cut 25 gauss/cut 25
pair_coeff 1 1 lj/cut 0.009507177838705264 3.7584971993521488
pair_coeff 1 1 gauss/cut 1 -0.0597999248039827 5.991246456844763 0.601172550524922
pair_coeff 1 1 gauss/cut 2 0.0726183915985775 5.919659952808235 0.9307156951487607
run 1
WARNING: No fixes with time integration, atoms won't move (src/verlet.cpp:60)
Generated 0 of 0 mixed pair_coeff terms from geometric mixing rule
Neighbor list info ...
  update every 1 steps, delay 10 steps, check yes
  max neighbors/atom: 2000, page size: 100000
  master list distance cutoff = 27
  ghost atom cutoff = 27
  binsize = 13.5, bins = 4 5 4
  3 neighbor lists, perpetual/occasional/extra = 3 0 0
  (1) pair lj/cut, perpetual
      attributes: half, newton on
      pair build: half/bin/newton
      stencil: half/bin/3d
      bin: standard
  (2) pair gauss/cut, perpetual, copy from (1)
      attributes: half, newton on
      pair build: copy
      stencil: none
      bin: none
  (3) pair gauss/cut, perpetual, copy from (1)
      attributes: half, newton on
      pair build: copy
      stencil: none
      bin: none
Per MPI rank memory allocation (min/avg/max) = 6.989 | 6.996 | 7.005 Mbytes
   Step          Temp          E_pair         E_mol          TotEng         Press     
         0   0              8.4178973e+11  0              8.4178973e+11  4.1262617e+13
         1   0              8.4178973e+11  0              8.4178973e+11  4.1262617e+13
Loop time of 0.010731 on 16 procs for 1 steps with 1620 atoms

Performance: 8.051 ns/day, 2.981 hours/ns, 93.188 timesteps/s
93.7% CPU use with 16 MPI tasks x 1 OpenMP threads

MPI task timing breakdown:
Section |  min time  |  avg time  |  max time  |%varavg| %total
---------------------------------------------------------------
Pair    | 0.00696    | 0.0083468  | 0.010322   |   0.8 | 77.78
Bond    | 8.32e-07   | 9.6888e-07 | 1.081e-06  |   0.0 |  0.01
Neigh   | 0          | 0          | 0          |   0.0 |  0.00
Comm    | 0.00026485 | 0.0022421  | 0.0036267  |   1.6 | 20.89
Output  | 8.1959e-05 | 8.3778e-05 | 8.5313e-05 |   0.0 |  0.78
Modify  | 1.387e-06  | 1.6374e-06 | 1.807e-06  |   0.0 |  0.02
Other   |            | 5.566e-05  |            |       |  0.52

Nlocal:         101.25 ave         116 max          86 min
Histogram: 1 1 2 1 3 1 3 2 0 2
Nghost:        5045.44 ave        5156 max        4930 min
Histogram: 1 1 1 3 2 1 4 0 2 1
Neighs:        51667.3 ave       62289 max       42990 min
Histogram: 1 0 2 5 4 1 1 0 0 2

Total # of neighbors = 826677
Ave neighs/atom = 510.29444
Ave special neighs/atom = 0
Neighbor list builds = 0
Dangerous builds = 0
thermo 1000
neighbor 2.0 bin
neigh_modify every 1 delay 0 check yes one 200000 page 2000000000
minimize 0.0 1.0e-8 100 1000
Generated 0 of 0 mixed pair_coeff terms from geometric mixing rule
Neighbor list info ...
  update every 1 steps, delay 0 steps, check yes
  max neighbors/atom: 200000, page size: 2000000000
  master list distance cutoff = 27
  ghost atom cutoff = 27
  binsize = 13.5, bins = 4 5 4
  3 neighbor lists, perpetual/occasional/extra = 3 0 0
  (1) pair lj/cut, perpetual
      attributes: half, newton on
      pair build: half/bin/newton
      stencil: half/bin/3d
      bin: standard
  (2) pair gauss/cut, perpetual, copy from (1)
      attributes: half, newton on
      pair build: copy
      stencil: none
      bin: none
  (3) pair gauss/cut, perpetual, copy from (1)
      attributes: half, newton on
      pair build: copy
      stencil: none
      bin: none
Per MPI rank memory allocation (min/avg/max) = 2.29e+04 | 2.29e+04 | 2.29e+04 Mbytes
   Step          Temp          E_pair         E_mol          TotEng         Press     
         1   0              8.4178973e+11  0              8.4178973e+11  4.1262617e+13
       101   0             -48.355701      0             -48.355701      771.17435    
Loop time of 1.11818 on 16 procs for 100 steps with 1620 atoms

100.0% CPU use with 16 MPI tasks x 1 OpenMP threads

Minimization stats:
  Stopping criterion = max iterations
  Energy initial, next-to-last, final = 
      841789725452.061  -48.1272120160371  -48.3557005586012
  Force two-norm initial, final = 3.3819312e+13 0.46980329
  Force max component initial, final = 1.7967273e+13 0.049920146
  Final line search alpha, max atom move = 1 0.049920146
  Iterations, force evaluations = 100 115

MPI task timing breakdown:
Section |  min time  |  avg time  |  max time  |%varavg| %total
---------------------------------------------------------------
Pair    | 0.77707    | 0.87936    | 1.0613     |   8.6 | 78.64
Bond    | 9.5421e-05 | 9.9661e-05 | 0.00010529 |   0.0 |  0.01
Neigh   | 0.010476   | 0.011832   | 0.013603   |   0.8 |  1.06
Comm    | 0.038571   | 0.22212    | 0.32572    |  17.3 | 19.86
Output  | 5.1734e-05 | 5.4015e-05 | 5.8552e-05 |   0.0 |  0.00
Modify  | 0          | 0          | 0          |   0.0 |  0.00
Other   |            | 0.004715   |            |       |  0.42

Nlocal:         101.25 ave         113 max          86 min
Histogram: 1 0 0 3 4 2 0 2 3 1
Nghost:        5029.25 ave        5101 max        4909 min
Histogram: 1 0 0 1 2 2 4 3 2 1
Neighs:        51680.9 ave       61194 max       46554 min
Histogram: 4 2 1 3 3 0 1 0 1 1

Total # of neighbors = 826894
Ave neighs/atom = 510.4284
Ave special neighs/atom = 0
Neighbor list builds = 7
Dangerous builds = 0
timestep 0.0005
fix 1 all nvt temp 300.0 300.0 $(100.0*dt)
fix 1 all nvt temp 300.0 300.0 0.050000000000000002776
fix removeMomentum all momentum 1 linear 1 1 1
dump 1 all custom 1000 ljg2_nvt_47/ca.traj id mol type mass x y z
dump_modify 1 sort id
run 2000000
Generated 0 of 0 mixed pair_coeff terms from geometric mixing rule
Per MPI rank memory allocation (min/avg/max) = 2.289e+04 | 2.289e+04 | 2.289e+04 Mbytes
   Step          Temp          E_pair         E_mol          TotEng         Press     
       101   0             -48.355701      0             -48.355701      771.17435    
      1000   174.55144     -44.972554      0             -8.4437946      1161.102     
      2000   288.8756      -13.553823      0              46.899803      1750.0274    
      3000   307.36771     -8.8149192      0              55.508589      1832.4833    
      4000   312.35368     -6.4266076      0              58.940327      2072.4931    
      5000   307.18152     -5.8100557      0              58.474488      2148.4434    
      6000   294.64464     -5.9874993      0              55.673424      2045.6863    
      7000   294.16608     -5.5734487      0              55.987326      2035.8291    
      8000   309.90658     -5.6524948      0              59.202329      2106.9396    
      9000   293.29971     -5.5481535      0              55.831315      2057.4234    
     10000   301.01815     -3.0806389      0              59.914085      2112.4069    
     11000   297.40855     -2.6798241      0              59.55951       2085.6559    
     12000   295.91932     -4.8082102      0              57.119469      2057.4902    
     13000   296.37316     -3.9158259      0              58.106829      2065.1837    
     14000   303.60044     -5.586367       0              57.948757      2028.8748    
     15000   289.22213     -4.7371369      0              55.789006      2165.8836    
     16000   304.41467     -5.382757       0              58.322762      2074.3717    
     17000   302.48827     -4.9395348      0              58.362844      1982.196     
     18000   315.60463     -3.5739404      0              62.473327      2066.8098    
     19000   300.26519     -5.7922094      0              57.04494       1922.582     
     20000   304.25912     -5.4579784      0              58.21499       1980.0437    
     21000   309.38833     -2.9493039      0              61.797065      2172.526     
     22000   305.39475     -5.3098671      0              58.600756      2087.9534    
     23000   286.89019     -3.5697331      0              56.468401      2173.6426    
     24000   302.01395     -4.0406909      0              59.162425      2170.1011    
     25000   289.47446     -3.9912453      0              56.587705      2185.8317    
     26000   301.34502     -4.4171655      0              58.645963      2169.4813    
     27000   303.00131     -4.2358073      0              59.173936      2103.4227    
     28000   296.74227     -5.0721452      0              57.027755      2132.4858    
     29000   309.47499     -4.7128893      0              60.051615      2137.0556    
     30000   299.6464      -3.6658751      0              59.041778      2177.3854    
     31000   304.36711     -4.1433591      0              59.552207      2067.4453    
     32000   302.79465     -5.5734994      0              57.792996      1993.0383    
     33000   293.42384     -4.9429166      0              56.462529      2007.0187    
     34000   300.64968     -4.3359533      0              58.581659      2067.8125    
     35000   295.08249     -3.7630786      0              57.989476      2131.2278    
     36000   310.69039     -5.2933846      0              59.725469      2016.6293    
     37000   289.1968      -4.52112        0              55.999723      2166.3752    
     38000   300.07922     -2.4864322      0              60.311799      2077.9755    
     39000   298.43708     -4.1889823      0              58.265595      2071.7625    
     40000   301.53441     -4.0663448      0              59.036417      2130.4132    
     41000   313.55662     -4.6491945      0              60.969481      2132.6787    
     42000   309.78008     -4.2647412      0              60.56361       2166.0566    
     43000   303.64311     -7.0051902      0              56.538863      2074.2333    
     44000   303.29493     -4.6168683      0              58.854322      2003.419     
     45000   290.3554      -5.1640574      0              55.599248      2049.2674    
     46000   296.77456     -4.750531       0              57.356126      2044.4238    
     47000   293.19486     -4.0882942      0              57.269232      2102.6258    
     48000   296.14921     -5.1542577      0              56.821531      2105.4192    
     49000   288.95372     -5.8664618      0              54.603512      1977.2056    
     50000   300.57055     -5.7369762      0              57.164077      2039.1505    
     51000   305.25718     -4.6738689      0              59.207965      2180.7096    
     52000   307.4994      -5.7783301      0              58.572738      2109.0103    
     53000   294.69162     -4.5716651      0              57.09909       2118.6924    
     54000   297.20773     -4.6439515      0              57.553357      2135.9515    
     55000   303.27889     -4.6293363      0              58.838497      2074.9274    
     56000   291.96027     -1.5762539      0              59.522907      2171.4991    
     57000   301.57674     -4.3000747      0              58.811545      2192.3318    
     58000   299.73564     -5.0916011      0              57.634729      2109.3831    
     59000   293.10427     -4.9060293      0              56.432539      1990.7689    
     60000   304.05115     -5.0763469      0              58.553099      2071.9141    
     61000   308.4688      -6.477861       0              58.076076      2031.1634    
     62000   298.84085     -4.1287176      0              58.410356      2092.9857    
     63000   296.91682     -5.2827799      0              56.853649      2035.6077    
     64000   310.96292     -6.0063766      0              59.06951       2031.9666    
     65000   291.9026      -3.3702729      0              57.716818      2219.8073    
     66000   292.1474      -3.6370091      0              57.501313      2169.5889    
     67000   306.68119     -5.9053207      0              58.274519      2103.4965    
     68000   306.48599     -5.3783822      0              58.760608      2117.2034    
     69000   301.0956      -4.512693       0              58.498239      2090.7387    
     70000   292.28763     -4.3842305      0              56.783438      2163.2677    
     71000   300.48236     -5.5623223      0              57.320274      2167.9751    
     72000   292.8897      -3.9790788      0              57.314586      2106.4151    
     73000   288.91517     -5.7984576      0              54.663447      1846.4992    
     74000   299.08734     -4.2495681      0              58.34109       2011.2356    
     75000   301.33076     -5.3121245      0              57.748019      2106.7306    
     76000   305.92619     -4.2155273      0              59.806311      2135.8311    
     77000   303.24066     -3.6194306      0              59.840401      2118.2044    
     78000   290.4757      -4.8111377      0              55.977343      2067.0723    
     79000   291.85373     -5.6863025      0              55.390562      2033.4275    
     80000   300.91135     -5.1067727      0              57.865601      2086.9299    
     81000   298.726       -3.1655408      0              59.349499      2108.7662    
     82000   293.29795     -4.344113       0              57.034987      2075.1257    
     83000   299.8624      -3.2443344      0              59.508522      2094.3972    
     84000   297.35441     -3.1439295      0              59.084074      2072.5099    
     85000   300.18851     -4.1124833      0              58.708619      2019.461     
     86000   295.24214     -3.4832218      0              58.302744      2106.4811    
     87000   306.0304      -5.2397864      0              58.80386       2131.6809    
     88000   300.17562     -4.2353783      0              58.583026      2142.1139    
     89000   299.04403     -4.682547       0              57.899047      2037.7351    
     90000   306.51773     -4.6657672      0              59.479865      2103.2197    
     91000   298.33338     -4.4884364      0              57.944439      2066.8869    
     92000   310.82437     -4.9873793      0              60.059514      2017.8646    
     93000   301.78069     -5.1102712      0              58.04403       2097.3894    
     94000   299.93612     -4.3825039      0              58.385781      2107.4139    
     95000   301.91935     -4.0362734      0              59.147045      2043.7154    
     96000   298.31072     -3.9331487      0              58.494985      2175.3904    
     97000   291.65586     -4.5853222      0              56.450135      2142.798     
     98000   298.26178     -4.2074551      0              58.210435      2070.7322    
     99000   288.82352     -3.8441866      0              56.59854       2088.6373    
    100000   296.2154      -4.2196922      0              57.769949      2224.4966    
    101000   299.09105     -5.0251381      0              57.566295      2164.3764    
    102000   299.47984     -4.7826844      0              57.890112      2190.3392    
    103000   312.09218     -3.9850453      0              61.327164      2120.6153    
    104000   294.58876     -5.4483221      0              56.200908      2070.9111    
    105000   302.56337     -3.3976722      0              59.920421      2136.2593    
    106000   302.51985     -4.8817894      0              58.427197      2229.2039    
    107000   303.28405     -4.0191475      0              59.449766      2065.2698    
    108000   292.89464     -4.8418164      0              56.452881      1981.5036    
    109000   287.6215      -4.1355066      0              56.05567       2158.4333    
    110000   300.83808     -4.8564348      0              58.100604      2142.1364    
    111000   300.16027     -5.2556684      0              57.559525      2111.7169    
    112000   303.12945     -5.2856263      0              58.150933      2087.3813    
    113000   301.25878     -4.3896917      0              58.655388      2191.4559    
    114000   303.3494      -5.7263755      0              57.756214      2046.5738    
    115000   299.19144     -3.468404       0              59.14404       2072.1196    
    116000   293.44472     -4.3837721      0              57.026043      2060.1501    
    117000   300.54908     -3.9331599      0              58.9634        2108.6028    
    118000   292.55386     -5.4971236      0              55.726259      1995.1563    
    119000   302.34423     -4.684403       0              58.587832      2012.036     
    120000   295.97952     -3.4925223      0              58.447755      2200.0767    
    121000   298.72169     -4.7239743      0              57.790164      1986.1891    
    122000   299.74548     -4.3947441      0              58.333644      2242.7691    
    123000   295.72426     -4.3473771      0              57.539481      1963.8892    
    124000   294.61368     -4.9363179      0              56.718128      2091.7341    
    125000   299.89753     -4.7900275      0              57.970181      2117.2129    
    126000   308.32985     -2.8942946      0              61.630563      2165.9698    
    127000   299.35577     -3.2683113      0              59.378522      2165.6828    
    128000   302.61792     -4.9696557      0              58.359855      2224.4912    
    129000   301.57022     -4.7528537      0              58.357401      2143.6778    
    130000   305.45174     -5.3661164      0              58.556433      1996.2842    
    131000   293.03345     -5.4903235      0              55.833423      2042.2281    
    132000   300.5309      -3.258874       0              59.633881      2084.2735    
    133000   299.72406     -3.7509286      0              58.972977      2067.0249    
    134000   305.34398     -3.5347474      0              60.365251      2153.6326    
    135000   299.29216     -5.4557768      0              57.177744      2029.9459    
    136000   304.62725     -5.604644       0              58.145364      2059.331     
    137000   304.64382     -4.6038445      0              59.14963       2069.0089    
    138000   311.20592     -4.4708098      0              60.655931      2096.1787    
    139000   297.33935     -4.8983795      0              57.326473      2003.2441    
    140000   305.3417      -3.4416389      0              60.457883      2194.8388    
    141000   304.03382     -4.6245363      0              59.001282      2138.1507    
    142000   300.20859     -5.7045808      0              57.120723      1874.5706    
    143000   293.2807      -5.0724651      0              56.303024      2050.5979    
    144000   304.0116      -4.071548       0              59.549622      2117.6009    
    145000   304.99047     -4.4137493      0              59.41227       2073.1518    
    146000   292.19698     -3.0561644      0              58.092532      2136.8878    
    147000   306.80277     -5.7608906      0              58.444392      2019.8362    
    148000   297.71273     -4.6730149      0              57.629975      2106.136     
    149000   294.83334     -4.8076417      0              56.892772      2132.6821    
    150000   311.02204     -4.9723997      0              60.115859      2114.4019    
    151000   299.06903     -4.8962598      0              57.690566      2176.0802    
    152000   295.49426     -4.3325753      0              57.50615       2106.529     
    153000   305.75291     -5.4045152      0              58.58106       1950.328     
    154000   305.10079     -6.3042085      0              57.544897      2066.8518    
    155000   301.2773      -5.6267895      0              57.422166      2026.0076    
    156000   290.05875     -5.9283439      0              54.772882      2089.2974    
    157000   302.14831     -5.5652098      0              57.666025      2068.8486    
    158000   297.59093     -3.8687384      0              58.408762      1930.9168    
    159000   305.7167      -2.7756448      0              61.202354      2034.4722    
    160000   297.87793     -3.3470367      0              58.990525      2138.1752    
    161000   308.5149      -3.680757       0              60.882827      2127.4195    
    162000   304.19149     -3.5691524      0              60.089663      2050.6019    
    163000   292.86808     -2.9164623      0              58.372677      2187.0774    
    164000   305.97524     -4.7155538      0              59.316551      2102.9603    
    165000   289.04224     -3.8233838      0              56.665113      2107.1028    
    166000   301.37228     -3.0568626      0              60.011969      2180.6617    
    167000   290.16012     -4.5384965      0              56.183942      2134.3281    
    168000   296.08455     -5.2001539      0              56.762103      2038.8188    
    169000   298.95205     -5.1686588      0              57.393687      2102.142     
    170000   296.49125     -4.2135888      0              57.83378       2128.4944    
    171000   299.74301     -5.2436201      0              57.484251      2046.3603    
    172000   299.40885     -4.7985442      0              57.859397      2146.4247    
    173000   294.70762     -5.1936405      0              56.480465      2084.1822    
    174000   310.31179     -6.0824043      0              58.857218      2077.7973    
    175000   311.9534      -6.8445744      0              58.438592      1957.6741    
    176000   286.42662     -4.6018534      0              55.339268      2169.7185    
    177000   289.51462     -5.1133078      0              55.474047      2011.7739    
    178000   286.66987     -5.060914       0              54.931113      2009.9154    
    179000   306.08771     -3.0250742      0              61.030567      2154.7997    
    180000   309.80079     -4.3423806      0              60.490304      2149.0524    
    181000   294.83317     -5.1099034      0              56.590475      2088.7621    
    182000   302.9946      -3.8682386      0              59.5401        2011.257     
    183000   305.4301      -4.6206032      0              59.297418      2075.6535    
    184000   294.52477     -3.4240644      0              58.211776      2181.555     
    185000   301.37833     -5.2652776      0              57.804822      2044.0112    
    186000   300.63959     -3.4812325      0              59.434268      2168.3164    
    187000   298.27536     -3.2168887      0              59.203845      1965.4639    
    188000   299.86815     -5.2218352      0              57.532225      2089.4335    
    189000   298.96753     -5.9490237      0              56.616562      2002.028     
    190000   304.97441     -5.7953855      0              58.027273      2093.0555    
    191000   296.73799     -4.2590971      0              57.839907      2142.9317    
    192000   292.64504     -4.0487933      0              57.19367       2084.0146    
    193000   298.66561     -3.5701746      0              58.932227      2160.2308    
    194000   292.0684      -3.9335524      0              57.188236      2155.4687    
    195000   302.06091     -4.982329       0              58.230614      2104.776     
    196000   295.57806     -7.4324661      0              54.423798      1936.0846    
    197000   284.87585     -4.6032159      0              55.013373      2046.5174    
    198000   306.85707     -4.2495657      0              59.967082      2070.029     
    199000   291.11245     -4.5711616      0              56.350574      2108.4274    
    200000   308.4024      -5.0470239      0              59.493018      2119.9902    
    201000   300.62328     -5.0895617      0              57.822527      2042.6991    
    202000   286.9265      -3.5713231      0              56.47441       2047.1082    
    203000   296.27389     -4.3706453      0              57.631236      1992.6653    
    204000   301.69177     -5.5812651      0              57.554427      2103.2766    
    205000   296.09077     -3.7744484      0              58.189112      2121.6581    
    206000   309.7643      -3.3650399      0              61.46001       2111.6899    
    207000   293.75165     -5.798605       0              55.675442      2038.612     
    208000   307.97464     -5.6913581      0              58.759165      2077.4039    
    209000   302.18264     -4.384082       0              58.854336      2006.3244    
    210000   307.12588     -4.7804115      0              59.492489      2121.0228    
    211000   292.56444     -4.9177158      0              56.30788       2083.1714    
    212000   295.8307      -4.6111981      0              57.297937      2040.1531    
    213000   307.28664     -5.8519984      0              58.454545      2007.8504    
    214000   297.83404     -3.6372685      0              58.691108      2211.0231    
    215000   290.99716     -5.514927       0              55.382682      2011.6883    
    216000   299.64596     -5.3118233      0              57.395739      2136.231     
    217000   302.64031     -3.867307       0              59.466888      2188.0318    
    218000   305.21494     -4.6611177      0              59.211877      2072.4695    
    219000   310.77535     -3.5594255      0              61.477208      2013.9097    
    220000   290.7382      -4.7169364      0              56.126479      2115.5519    
    221000   293.98564     -5.9232848      0              55.59973       2110.1692    
    222000   292.74996     -5.2444425      0              56.019977      2144.1787    
    223000   296.77431     -4.8590392      0              57.247566      2068.148     
    224000   295.50987     -5.9444661      0              55.897528      2087.0953    
    225000   307.47635     -4.5802406      0              59.766003      2028.2314    
    226000   292.34366     -4.41335        0              56.766043      2086.947     
    227000   307.89684     -4.0055703      0              60.42867       2143.7425    
    228000   300.07976     -5.3166073      0              57.481737      2067.2435    
    229000   300.93203     -4.1857134      0              58.790987      2056.4748    
    230000   284.12546     -4.9826401      0              54.476912      1961.4267    
    231000   296.03609     -4.6541859      0              57.297931      2124.7878    
    232000   302.4698      -4.0746295      0              59.223883      2250.9728    
    233000   297.52857     -4.2174804      0              58.046971      2085.0948    
    234000   292.85718     -4.2017901      0              57.08507       2074.5989    
    235000   299.7737      -4.2812912      0              58.453003      2068.8675    
    236000   304.36306     -5.5076918      0              58.187027      2038.8921    
    237000   297.21536     -6.2848197      0              55.914084      1973.4578    
    238000   310.51191     -6.0773696      0              58.904133      2054.1296    
    239000   301.69443     -5.5784888      0              57.55776       2040.8339    
    240000   301.7134      -5.5464572      0              57.593763      1947.7545    
    241000   286.05574     -4.4179658      0              55.445541      2014.0037    
    242000   294.20513     -5.7840872      0              55.78486       2038.2888    
    243000   299.12727     -3.8507475      0              58.748267      2175.6702    
    244000   305.97602     -4.9296442      0              59.102623      2018.9939    
    245000   305.12756     -4.1891647      0              59.665544      2083.7473    
    246000   306.18703     -4.2536149      0              59.822811      2114.5726    
    247000   298.17828     -4.4395802      0              57.960837      2042.5191    
    248000   295.14093     -2.9461205      0              58.818664      2158.0055    
    249000   301.27893     -4.88593        0              58.163367      1980.8747    
    250000   304.25369     -5.0220015      0              58.64983       2096.3855    
    251000   301.96088     -3.6025545      0              59.589457      2138.2931    
    252000   302.66013     -5.3925924      0              57.945751      2081.1357    
    253000   302.42881     -5.152008       0              58.137927      2166.3996    
    254000   314.1971      -4.8916077      0              60.861102      2164.1126    
    255000   299.58134     -4.9195457      0              57.774493      2135.2533    
    256000   301.39264     -3.8924356      0              59.180658      2176.5217    
    257000   309.0063      -4.8669248      0              59.799496      2043.4224    
    258000   301.28058     -5.4214397      0              57.628203      1997.6444    
    259000   289.76788     -3.9756839      0              56.66467       2075.6311    
    260000   301.38304     -6.20524        0              56.865845      2130.7614    
    261000   303.75264     -4.8409942      0              58.725982      2042.5414    
    262000   302.34741     -5.0694922      0              58.203407      2028.5125    
    263000   292.64955     -3.3847906      0              57.858618      2056.9974    
    264000   305.31018     -3.8552122      0              60.037714      2100.5708    
    265000   303.72564     -4.1892299      0              59.372096      2158.3542    
    266000   301.95086     -4.6528579      0              58.537056      2150.1033    
    267000   311.48383     -5.6302969      0              59.554602      1995.9952    
    268000   303.29999     -5.5802253      0              57.892023      2007.2884    
    269000   304.53704     -3.7982152      0              59.932913      2173.2062    
    270000   287.62115     -3.7378802      0              56.453224      2050.3292    
    271000   310.4796      -4.6339218      0              60.34082       2060.9895    
    272000   297.25476     -4.9455206      0              57.261629      2077.9551    
    273000   298.50756     -4.6844156      0              57.78491       1961.7057    
    274000   290.03008     -3.1431969      0              57.552029      2120.6344    
    275000   303.56062     -5.8739026      0              57.652889      2070.445     
    276000   304.33332     -5.3552644      0              58.333232      2057.1793    
    277000   293.853       -6.0438314      0              55.451426      2043.0971    
    278000   294.84435     -5.821913       0              55.880805      2070.9331    
    279000   300.24532     -6.0202587      0              56.812733      1928.303     
    280000   302.07274     -6.1660405      0              57.049379      2048.1846    
    281000   307.94261     -4.1059414      0              60.337878      2087.3547    
    282000   306.93804     -5.3347929      0              58.898799      2042.7154    
    283000   296.74092     -4.5015723      0              57.598045      2115.5671    
    284000   299.67661     -3.7756359      0              58.938341      2086.6223    
    285000   306.55031     -5.1743522      0              58.978098      2103.6548    
    286000   300.40899     -4.1804683      0              58.686775      2140.6931    
    287000   295.99992     -3.5344671      0              58.41008       2166.9624    
    288000   302.63453     -4.8529565      0              58.480029      2144.1808    
    289000   293.62447     -6.1853221      0              55.262109      1927.9124    
    290000   297.0187      -4.0703689      0              58.087381      2003.0921    
    291000   293.72509     -4.047774       0              57.420713      2055.2008    
    292000   311.03359     -5.1868073      0              59.903869      2100.8117    
    293000   305.37372     -5.0555709      0              58.850652      2116.9131    
    294000   298.48227     -4.4318052      0              58.032228      2194.6482    
    295000   292.70994     -5.8884015      0              55.367645      2119.7369    
    296000   305.83056     -4.009068       0              59.992759      2092.7937    
    297000   301.71547     -4.4564793      0              58.684173      2197.5286    
    298000   293.65645     -4.3006115      0              57.153513      2086.457     
    299000   296.23018     -4.6952923      0              57.297441      2118.9147    
    300000   302.81958     -4.1761242      0              59.195589      2198.9485    
    301000   292.38457     -3.2021613      0              57.985794      2093.0574    
    302000   305.43905     -5.6188501      0              58.301045      2058.2445    
    303000   297.45059     -4.5702476      0              57.677884      2055.2913    
    304000   287.57198     -5.8268792      0              54.353934      2058.6223    
    305000   301.97198     -4.9923851      0              58.201947      2066.1799    
    306000   295.6752      -4.6720012      0              57.204591      2015.5025    
    307000   303.92232     -5.8758156      0              57.726668      1910.5523    
    308000   308.81969     -4.7297236      0              59.897645      1997.8671    
    309000   302.65692     -5.8123227      0              57.52535       2055.0606    
    310000   291.32286     -3.0287879      0              57.936981      2236.3079    
    311000   305.2578      -4.5409088      0              59.341055      2180.5041    
    312000   294.2679      -3.39762        0              58.184462      2103.5749    
    313000   294.22709     -4.8358198      0              56.737723      2034.9736    
    314000   309.69542     -6.0878065      0              58.722829      2011.2032    
    315000   302.3717      -5.6190709      0              57.658912      2102.6056    
    316000   302.5654      -5.5314317      0              57.787087      2109.6395    
    317000   289.71779     -5.7063755      0              54.923497      2091.3753    
    318000   294.69249     -5.6186821      0              56.052257      2087.798     
    319000   301.09036     -5.4078179      0              57.602016      2070.9326    
    320000   298.43278     -4.80292        0              57.650758      2138.6527    
    321000   289.92328     -5.8288678      0              54.844007      1984.3286    
    322000   296.16138     -5.3774         0              56.600936      2025.8622    
    323000   305.86553     -5.0282459      0              58.980898      2087.8513    
    324000   301.41286     -5.4086679      0              57.668657      2048.3729    
    325000   290.41087     -5.8104603      0              54.964453      1992.9464    
    326000   304.08832     -3.8617862      0              59.775438      2217.5814    
    327000   300.67489     -4.0083018      0              58.914587      2072.7742    
    328000   304.10386     -4.4028723      0              59.237604      2146.8035    
    329000   302.46148     -5.5031656      0              57.793606      2097.105     
    330000   296.59838     -5.9307628      0              56.139024      2121.1808    
    331000   292.31316     -5.1528195      0              56.020191      2001.2979    
    332000   299.31595     -4.781523       0              57.856976      2051.1649    
    333000   306.89688     -5.1424131      0              59.082564      2065.4474    
    334000   301.58176     -4.6654421      0              58.447229      2118.9778    
    335000   297.93859     -3.8339105      0              58.516346      2130.1873    
    336000   301.37566     -3.9016645      0              59.167875      2138.0468    
    337000   306.43568     -5.088998       0              59.039463      2060.7185    
    338000   303.15601     -3.725012       0              59.717106      2093.799     
    339000   306.04485     -5.1034104      0              58.943261      2108.8513    
    340000   298.31081     -2.4085068      0              60.019646      2196.4665    
    341000   301.19049     -5.7773136      0              57.253474      2094.9639    
    342000   307.11689     -4.4933592      0              59.777661      2126.4764    
    343000   301.56851     -4.7777526      0              58.332145      2046.537     
    344000   304.62421     -6.0368973      0              57.712473      2003.2004    
    345000   303.29867     -4.161759       0              59.310213      2182.3027    
    346000   299.61473     -5.6358823      0              57.065143      2082.0316    
    347000   294.86913     -4.7466592      0              56.961245      2180.5856    
    348000   296.71694     -5.7179626      0              56.376638      2060.8355    
    349000   299.51231     -3.973636       0              58.705957      2236.4419    
    350000   300.84037     -4.3402108      0              58.617309      2037.8767    
    351000   310.53169     -4.626398       0              60.359244      2110.6725    
    352000   288.56102     -4.6376509      0              55.750141      2105.8867    
    353000   296.41106     -4.5976705      0              57.432916      2028.7622    
    354000   292.19653     -2.5050967      0              58.643507      2113.1947    
    355000   298.80371     -5.5617216      0              56.969581      2100.7418    
    356000   302.04645     -4.2449648      0              58.964953      2122.3943    
    357000   293.88485     -5.153901       0              56.348022      2032.6624    
    358000   295.69835     -4.6895024      0              57.191934      2060.9871    
    359000   304.56391     -4.7233477      0              59.013404      2114.677     
    360000   291.97487     -3.8177745      0              57.284441      2134.7094    
    361000   296.23013     -5.3783877      0              56.614336      1966.5899    
    362000   308.81723     -3.2136427      0              61.413212      2217.2286    
    363000   305.74681     -4.2349296      0              59.749371      2181.7572    
    364000   303.51267     -3.5338276      0              59.98293       2069.5606    
    365000   303.49018     -4.2108296      0              59.301221      2030.1826    
    366000   295.5076      -3.703778       0              58.13774       2123.4924    
    367000   293.5979      -3.8632263      0              57.578645      2054.6707    
    368000   292.10134     -4.8344353      0              56.294247      2077.628     
    369000   288.6808      -5.8432615      0              54.569597      2029.6314    
    370000   283.35631     -3.7359363      0              55.562656      2090.7724    
    371000   301.65594     -4.1584966      0              58.969697      2113.2658    
    372000   296.61196     -5.4778944      0              56.594736      2078.9486    
    373000   309.14527     -6.0161811      0              58.679323      2133.4008    
    374000   304.33049     -3.2608646      0              60.427039      2066.1182    
    375000   292.01943     -6.4977199      0              54.613822      1989.3771    
    376000   308.646       -4.8660449      0              59.724974      2080.8712    
    377000   304.88032     -4.7922263      0              59.010741      1998.8664    
    378000   306.39892     -3.3289739      0              60.791793      2164.3454    
    379000   289.46413     -5.1697515      0              55.407037      2102.9384    
    380000   302.37716     -6.1523918      0              57.126734      2093.3488    
    381000   294.62128     -5.4308747      0              56.225162      2112.3105    
    382000   305.74984     -6.2778132      0              57.707121      2100.7279    
    383000   309.30372     -5.4941798      0              59.234483      2111.9631    
    384000   298.22294     -5.2500959      0              57.159667      2068.1243    
    385000   298.68163     -5.8252774      0              56.680476      2064.7463    
    386000   303.86175     -4.9513614      0              58.638447      2056.6823    
    387000   301.05055     -5.2975036      0              57.703999      2017.1721    
    388000   302.2958      -5.3748198      0              57.88728       2065.5526    
    389000   303.46025     -4.4747597      0              59.031026      2038.1684    
    390000   293.77449     -4.6986695      0              56.780157      1996.699     
    391000   298.6878      -4.8590553      0              57.647991      2106.149     
    392000   303.4329      -5.3187389      0              58.181325      2067.3262    
    393000   293.16144     -3.6372603      0              57.713272      2143.2121    
    394000   305.87352     -3.2304448      0              60.780372      2191.3772    
    395000   301.33732     -4.171444       0              58.890073      2068.6941    
    396000   291.36921     -5.3456646      0              55.629803      2009.0183    
    397000   302.60867     -3.8219476      0              59.505627      2128.5877    
    398000   310.49352     -3.2963358      0              61.681318      2160.198     
    399000   294.94209     -4.7321126      0              56.991059      2098.0566    
    400000   301.43267     -3.3047312      0              59.77674       2111.4094    
    401000   295.23252     -5.4751257      0              56.308826      2061.7606    
    402000   300.73229     -4.4716094      0              58.463292      2140.9756    
    403000   301.58169     -4.4994154      0              58.613241      1975.4485    
    404000   295.09101     -4.1814853      0              57.572852      2055.8176    
    405000   304.43727     -5.4639512      0              58.246299      2016.0735    
    406000   307.29312     -5.1247972      0              59.183102      2105.1865    
    407000   303.40281     -5.0295189      0              58.464246      2005.8607    
    408000   301.66775     -5.040555       0              58.090111      1998.6671    
    409000   297.95493     -3.8015717      0              58.552104      2121.0924    
    410000   299.59509     -5.3547997      0              57.342116      2065.8506    
    411000   296.00951     -4.0999082      0              57.846646      2024.5153    
    412000   291.58851     -4.6042475      0              56.417114      2082.6062    
    413000   301.37915     -3.6853223      0              59.384948      2182.8589    
    414000   298.91517     -5.4790826      0              57.075545      2045.1438    
    415000   300.45694     -4.4235623      0              58.453715      2034.6104    
    416000   296.93271     -3.7282947      0              58.41146       2070.8896    
    417000   302.35004     -2.788955       0              60.484496      2161.1808    
    418000   299.33255     -5.1911826      0              57.450791      2108.8602    
    419000   304.54424     -5.8056849      0              57.92695       2026.4198    
    420000   303.04711     -5.9528598      0              57.466468      2147.4194    
    421000   299.23814     -5.4251437      0              57.197073      2095.8111    
    422000   286.44617     -6.0628014      0              53.882411      2033.381     
    423000   304.96683     -3.4740244      0              60.347047      2049.2842    
    424000   294.53993     -4.0839304      0              57.55508       2131.6487    
    425000   305.62839     -4.7605833      0              59.198934      2123.9303    
    426000   302.07063     -6.2737678      0              56.941211      1969.6244    
    427000   298.27815     -4.9661789      0              57.455139      2154.7116    
    428000   300.98413     -3.7569046      0              59.230698      2090.3557    
    429000   305.72448     -5.2658924      0              58.713734      2047.7982    
    430000   299.92721     -3.3703144      0              59.396105      2128.9471    
    431000   307.38179     -2.5952328      0              61.731224      2121.6998    
    432000   299.82569     -4.5729642      0              58.17221       2019.6435    
    433000   300.46255     -3.5587102      0              59.319741      2068.3739    
    434000   301.81339     -3.7597015      0              59.401443      2127.1922    
    435000   292.98133     -3.2369118      0              58.075927      2230.2756    
    436000   301.17567     -3.6218873      0              59.4058        2106.3636    
    437000   299.94262     -4.800726       0              57.968919      2046.2063    
    438000   301.3788      -4.5354428      0              58.534755      2169.9731    
    439000   298.99129     -5.2083293      0              57.362228      2163.987     
    440000   303.36481     -4.8402386      0              58.645576      2055.3935    
    441000   299.41211     -3.9836709      0              58.674952      2151.0033    
    442000   295.77155     -5.566712       0              56.330043      2074.1775    
    443000   311.79914     -5.2197291      0              60.031156      2016.7167    
    444000   302.3573      -5.4595677      0              57.815401      2081.2944    
    445000   295.50312     -5.6734779      0              56.167103      2032.3218    
    446000   287.59099     -5.0272927      0              55.157499      2158.6565    
    447000   297.90877     -4.9826709      0              57.361346      2114.8635    
    448000   294.78333     -5.8952891      0              55.794659      2129.155     
    449000   296.53233     -3.9771248      0              58.078841      2060.4948    
    450000   292.58793     -4.3493187      0              56.881194      2140.7378    
    451000   311.73762     -5.6134848      0              59.624524      2064.1513    
    452000   308.19708     -4.7500376      0              59.747035      2142.9737    
    453000   301.45348     -4.6784714      0              58.407354      2060.172     
    454000   294.7864      -3.0210805      0              58.669511      2228.1005    
    455000   306.30849     -3.9406697      0              60.161175      2175.0432    
    456000   302.50231     -3.7490715      0              59.556246      2110.5738    
    457000   295.36663     -4.1587326      0              57.653285      2226.6002    
    458000   306.77209     -4.575299       0              59.623564      2051.7125    
    459000   297.5361      -3.5753054      0              58.690721      2114.7006    
    460000   294.63785     -2.8534609      0              58.806043      2187.9386    
    461000   298.57653     -3.0909912      0              59.392768      2141.355     
    462000   299.77345     -4.2580356      0              58.476206      1993.9949    
    463000   307.427       -4.8756241      0              59.460294      2075.3048    
    464000   307.39521     -5.6690051      0              58.660259      2020.2609    
    465000   292.81393     -4.5514038      0              56.726405      2095.82      
    466000   301.84721     -5.0456466      0              58.122576      2046.0086    
    467000   296.52627     -5.0271195      0              57.027577      1988.7826    
    468000   314.38216     -3.8182349      0              61.973203      2147.0683    
    469000   305.41787     -3.7929509      0              60.122511      2189.1304    
    470000   297.67885     -4.8303956      0              57.465504      2140.0249    
    471000   299.97064     -4.9139763      0              57.861533      2042.1197    
    472000   303.57638     -2.2704623      0              61.259628      2095.6667    
    473000   296.04195     -4.1801102      0              57.773233      2020.8514    
    474000   300.75508     -4.7125839      0              58.227087      2230.6572    
    475000   304.23555     -5.3941494      0              58.273885      2057.7519    
    476000   305.81602     -5.3094953      0              58.689287      2133.3859    
    477000   295.26673     -5.1595571      0              56.631554      2092.5466    
    478000   308.0831      -4.0529195      0              60.420301      2096.9399    
    479000   299.16583     -2.7410108      0              59.866073      2163.6559    
    480000   302.78775     -4.4777442      0              58.887306      2126.5715    
    481000   297.62841     -4.5563018      0              57.729042      2066.1419    
    482000   304.83475     -5.8311215      0              57.962309      2054.196     
    483000   294.72824     -4.4715368      0              57.206883      2100.7331    
    484000   314.84379     -3.6802906      0              62.207754      2172.3415    
    485000   295.43194     -4.0723347      0              57.753349      2195.4567    
    486000   300.62509     -4.8003199      0              58.112146      2047.9895    
    487000   297.63158     -5.3141325      0              56.971876      2091.7231    
    488000   292.15057     -3.5268328      0              57.612151      2162.4817    
    489000   320.35321     -3.9628199      0              63.078193      2258.2817    
    490000   292.20104     -4.1344616      0              57.015086      2156.4557    
    491000   299.8355      -5.3228411      0              57.424387      2217.2799    
    492000   299.16224     -5.2395301      0              57.366802      2039.611     
    493000   307.31629     -5.5851874      0              58.72756       2131.0214    
    494000   303.31201     -4.8911446      0              58.583619      2086.8046    
    495000   311.97297     -4.225559       0              61.061703      2105.3548    
    496000   296.45033     -5.2565599      0              56.782246      2065.0754    
    497000   299.51989     -3.605804       0              59.075374      2108.179     
    498000   301.62217     -6.4831331      0              56.637995      1977.1919    
    499000   286.90677     -4.6133465      0              55.428258      1997.027     
    500000   296.2912      -4.2624656      0              57.743039      2121.5601    
    501000   297.29189     -5.6752211      0              56.5397        2097.8189    
    502000   299.9363      -4.3653777      0              58.402943      2104.2724    
    503000   291.36157     -4.901807       0              56.072063      2041.0062    
    504000   298.29019     -5.1340072      0              57.289829      2109.9608    
    505000   297.19893     -4.2912729      0              57.904193      2135.5227    
    506000   292.64389     -5.4300337      0              55.812189      1970.4221    
    507000   290.90232     -5.9098209      0              54.96794       1942.4072    
    508000   300.08659     -5.9285189      0              56.871254      2015.3552    
    509000   294.90068     -4.9173463      0              56.79716       2060.4527    
    510000   296.68043     -5.8783215      0              56.208637      1972.7571    
    511000   305.97378     -4.8927531      0              59.139045      2059.3564    
    512000   306.47824     -4.0542147      0              60.083154      2106.3923    
    513000   296.64492     -5.2022021      0              56.877326      1993.8003    
    514000   299.17448     -3.5331196      0              59.075775      2271.1238    
    515000   298.75882     -5.6490821      0              56.872827      2124.5       
    516000   299.23929     -5.0279422      0              57.594514      2048.5797    
    517000   305.34177     -4.8097487      0              59.089788      2131.1116    
    518000   302.32203     -4.0767537      0              59.190835      2155.6138    
    519000   304.26838     -3.0555948      0              60.619311      2193.5078    
    520000   287.02171     -4.2626662      0              55.802992      2085.535     
    521000   301.75257     -4.9897408      0              58.158677      2072.5645    
    522000   296.18021     -4.3443385      0              57.637938      2050.4193    
    523000   306.9252      -4.2873272      0              59.943576      2157.7131    
    524000   306.97529     -3.8624186      0              60.378968      2168.648     
    525000   302.16608     -5.8348206      0              57.400132      2050.6345    
    526000   300.58936     -3.6103218      0              59.294667      2142.2717    
    527000   295.22229     -5.9110748      0              55.870736      2148.4136    
    528000   313.83627     -3.1896106      0              62.487588      2168.1037    
    529000   289.92005     -5.3143192      0              55.357881      1982.0403    
    530000   301.35741     -4.0918484      0              58.973873      2098.6121    
    531000   302.26553     -4.6581528      0              58.597612      2017.175     
    532000   296.34168     -5.5830455      0              56.433023      1979.7357    
    533000   294.24573     -4.2970949      0              57.280349      2088.1839    
    534000   299.12715     -4.7266858      0              57.872303      2112.7733    
    535000   297.60101     -2.7555841      0              59.524026      2103.0389    
    536000   297.54521     -4.3473182      0              57.920616      2007.7694    
    537000   314.12518     -3.3865919      0              62.351067      2121.6777    
    538000   298.41434     -4.9482181      0              57.5016        2014.5433    
    539000   300.35601     -5.1637414      0              57.692414      2039.5349    
    540000   301.80379     -5.2346         0              57.924535      2130.9586    
    541000   307.34396     -3.9035592      0              60.414979      2055.8965    
    542000   294.94446     -4.2940638      0              57.429605      2080.0038    
    543000   293.03638     -4.7085436      0              56.615817      2082.429     
    544000   306.1099      -4.2221992      0              59.838086      2220.7777    
    545000   296.40757     -4.6951124      0              57.334745      2073.6413    
    546000   301.97336     -3.712387       0              59.482235      2148.0893    
    547000   301.45399     -3.4762231      0              59.609709      2227.8011    
    548000   305.71489     -3.8830602      0              60.094561      2239.7014    
    549000   303.18582     -4.174497       0              59.273859      2042.6822    
    550000   294.16943     -5.1789692      0              56.382508      2102.8913    
    551000   297.41175     -6.2550324      0              55.984972      1990.4909    
    552000   297.84589     -3.5764441      0              58.754414      2027.258     
    553000   296.6086      -4.2030004      0              57.868926      2095.3851    
    554000   303.18599     -4.9918384      0              58.456553      2057.2307    
    555000   288.23487     -4.8218216      0              55.497716      2114.8027    
    556000   287.38704     -4.0539711      0              56.08814       2029.4381    
    557000   299.09704     -4.0012616      0              58.591426      2141.5987    
    558000   302.85824     -5.0564307      0              58.323372      2135.2612    
    559000   301.10751     -3.1111971      0              59.902227      2158.1333    
    560000   310.00826     -5.9064923      0              58.96961       2032.0158    
    561000   293.00973     -4.9978886      0              56.320895      1977.5873    
    562000   294.29162     -5.5860014      0              56.001047      2058.0176    
    563000   295.76418     -4.9094389      0              56.985774      2087.7127    
    564000   311.0242      -5.4316078      0              59.657103      2105.0213    
    565000   295.43175     -4.6506034      0              57.175041      2076.0569    
    566000   307.26561     -4.6609518      0              59.64119       2060.6864    
    567000   297.77116     -5.740901       0              56.574317      2048.403     
    568000   307.01603     -3.5426763      0              60.707236      2114.0499    
    569000   305.62523     -4.0328528      0              59.926004      2107.8631    
    570000   301.36221     -3.1483239      0              59.918402      2271.2017    
    571000   304.49927     -4.0659412      0              59.657282      2076.578     
    572000   285.77783     -4.3715896      0              55.433758      2046.4527    
    573000   295.48997     -5.2956417      0              56.542188      2024.9734    
    574000   292.98427     -3.007013       0              58.306442      2210.1679    
    575000   301.34217     -3.6212376      0              59.441294      2116.0469    
    576000   308.67557     -4.9235045      0              59.673703      2068.9676    
    577000   295.17701     -6.1172776      0              55.655056      1967.601     
    578000   317.95357     -5.6418411      0              60.896995      2036.6795    
    579000   292.29808     -4.5142356      0              56.655618      2107.0362    
    580000   297.20278     -4.5603501      0              57.635921      2082.5899    
    581000   312.03941     -5.7677981      0              59.533368      2107.0143    
    582000   300.78536     -6.1450312      0              56.800975      2039.6753    
    583000   297.98835     -3.4779274      0              58.882743      2123.831     
    584000   306.99266     -3.8647155      0              60.380306      2166.4455    
    585000   298.64717     -3.6462414      0              58.852301      2127.3872    
    586000   301.45777     -3.7718451      0              59.314879      2122.9062    
    587000   295.97618     -4.8635031      0              57.076076      2032.4779    
    588000   299.71967     -4.4022314      0              58.320756      2111.7079    
    589000   314.86811     -3.7831033      0              62.110031      2098.3395    
    590000   294.37005     -4.6668937      0              56.936567      2010.851     
    591000   303.61828     -4.1458235      0              59.393034      2115.7457    
    592000   289.4081      -2.8153511      0              57.749712      2194.775     
    593000   298.82893     -4.6714641      0              57.865116      2033.1164    
    594000   297.98133     -5.0045287      0              57.354672      2078.2121    
    595000   297.99228     -3.5048452      0              58.856647      2158.1216    
    596000   292.72863     -3.4125772      0              57.84738       2163.6308    
    597000   305.55411     -4.1759958      0              59.767976      2086.5798    
    598000   307.79876     -6.8939294      0              57.519786      2047.1616    
    599000   292.97956     -4.5794935      0              56.732977      2093.1751    
    600000   293.85824     -5.4760367      0              56.020316      1995.274     
    601000   294.52765     -5.9305871      0              55.705855      2116.1026    
    602000   299.12988     -6.0853622      0              56.514199      1910.5591    
    603000   294.81708     -4.3988092      0              57.298203      2014.8568    
    604000   299.6862      -3.8925021      0              58.82348       2156.1718    
    605000   304.70859     -2.9873653      0              60.779664      2110.9461    
    606000   290.62257     -5.1915367      0              55.627682      2005.6198    
    607000   296.93214     -4.9656252      0              57.17401       2111.4521    
    608000   291.55904     -2.4991951      0              58.515999      2181.4067    
    609000   296.96707     -5.279158       0              56.867787      2020.7952    
    610000   294.44885     -4.926017       0              56.693935      2016.6383    
    611000   305.66183     -4.5470974      0              59.419419      2091.7346    
    612000   297.85301     -3.9053163      0              58.42703       2079.8796    
    613000   297.03404     -5.1313344      0              57.029626      2003.6781    
    614000   297.95642     -2.2544112      0              60.099577      2171.2623    
    615000   298.00191     -3.5038618      0              58.859646      2156.5436    
    616000   291.38449     -4.1809421      0              56.797723      2155.2576    
    617000   300.40097     -5.5039395      0              57.361624      2035.2119    
    618000   300.47456     -4.6963418      0              58.184622      2096.3946    
    619000   300.86374     -6.2852171      0              56.677193      2038.9847    
    620000   305.3864      -5.6371524      0              58.271724      2049.8739    
    621000   299.67507     -4.2870374      0              58.426616      2045.0791    
    622000   295.77592     -5.7265283      0              56.171142      2024.7157    
    623000   301.51947     -4.788655       0              58.31098       2056.0498    
    624000   315.86171     -4.7517968      0              61.34927       2070.2573    
    625000   292.88017     -5.9885631      0              55.303106      2065.1199    
    626000   301.13478     -5.4346657      0              57.584465      2040.0796    
    627000   300.85014     -5.6597638      0              57.2998        2055.4016    
    628000   306.01383     -3.8195494      0              60.22063       2215.0328    
    629000   290.01959     -5.4847604      0              55.208269      2014.7524    
    630000   300.70423     -5.0231113      0              57.905917      2081.3965    
    631000   305.79068     -4.9731276      0              59.020353      1999.7788    
    632000   301.21075     -5.1916953      0              57.843333      2028.092     
    633000   304.78062     -5.4650802      0              58.317022      2115.5701    
    634000   290.97873     -5.3157143      0              55.578037      2127.2044    
    635000   302.48602     -4.432003       0              58.869903      2110.7691    
    636000   297.83817     -4.5311393      0              57.798102      2024.3759    
    637000   285.96673     -4.487398       0              55.357481      2178.2382    
    638000   300.93135     -4.4913168      0              58.485241      2019.4544    
    639000   296.0546      -3.9330974      0              58.022892      1944.2828    
    640000   307.49084     -3.2946109      0              61.054667      2165.3178    
    641000   296.0905      -4.8036365      0              57.159867      2102.8792    
    642000   301.87624     -5.3199096      0              57.854388      2072.2822    
    643000   303.85708     -3.449863       0              60.138968      2161.559     
    644000   304.9252      -3.7089014      0              60.103458      2052.7976    
    645000   300.02155     -5.0129344      0              57.773227      2086.2686    
    646000   300.48279     -6.4203787      0              56.462308      2032.983     
    647000   305.09254     -2.8332837      0              61.014095      2145.4373    
    648000   299.00309     -5.3510025      0              57.222024      2071.2275    
    649000   303.76926     -4.512308       0              59.058145      2083.9767    
    650000   297.71411     -5.2847485      0              57.018532      2132.4542    
    651000   296.76289     -5.495278       0              56.608938      2081.0728    
    652000   306.02842     -5.0075933      0              59.03564       2049.7927    
    653000   290.68853     -4.3261338      0              56.506887      2045.4513    
    654000   308.71781     -5.5232127      0              59.082834      2047.1896    
    655000   305.3684      -5.5461316      0              58.358978      2115.1891    
    656000   294.53055     -3.6340072      0              58.003042      2193.6343    
    657000   305.90918     -5.1288115      0              58.889469      2082.8418    
    658000   298.68719     -5.0000808      0              57.506837      2080.2431    
    659000   295.97235     -5.2373764      0              56.701402      2084.0047    
    660000   300.67813     -3.8764448      0              59.047121      2180.7813    
    661000   296.5959      -5.3242959      0              56.744973      2065.0701    
    662000   309.32348     -5.8876962      0              58.845101      2118.9021    
    663000   297.22312     -5.2823254      0              56.918203      2092.1058    
    664000   295.97651     -6.7452582      0              55.194389      2017.4626    
    665000   313.71355     -5.4724637      0              60.179053      2082.785     
    666000   302.13474     -4.469332       0              58.759062      2032.0064    
    667000   302.64996     -3.1333436      0              60.202873      2271.7376    
    668000   296.77743     -5.5464857      0              56.560772      1952.5927    
    669000   297.67685     -4.9087076      0              57.386775      2133.9471    
    670000   297.75502     -3.4150123      0              58.896829      2069.456     
    671000   305.50561     -4.3093848      0              59.624439      2143.4744    
    672000   308.25505     -4.9531587      0              59.556045      2131.3543    
    673000   296.62158     -5.111676       0              56.962968      2097.3203    
    674000   303.31321     -2.982213       0              60.492802      2188.2044    
    675000   290.8067      -4.0039901      0              56.853761      2082.3885    
    676000   298.97572     -4.901253       0              57.666046      2134.475     
    677000   301.47381     -4.6242357      0              58.465845      2082.4499    
    678000   298.71682     -4.0772814      0              58.435837      2099.9551    
    679000   297.12534     -7.24059        0              54.939475      1967.0271    
    680000   308.14963     -5.3567166      0              59.130427      1963.97      
    681000   294.60518     -2.2014169      0              59.45125       2121.883     
    682000   311.41996     -5.5927146      0              59.578817      2071.2906    
    683000   296.6111      -2.5337296      0              59.538721      2153.5075    
    684000   296.34555     -4.2661247      0              57.750754      2022.3094    
    685000   299.32079     -4.4546024      0              58.18491       2213.3196    
    686000   299.24665     -3.1660068      0              59.45799       2147.4914    
    687000   306.43095     -3.796976       0              60.330496      2096.9209    
    688000   299.94087     -4.6926728      0              58.076606      2103.6546    
    689000   301.20474     -4.2620846      0              58.771686      2017.009     
    690000   308.59223     -4.2501218      0              60.329645      2166.7649    
    691000   295.41692     -4.2687279      0              57.553813      2177.5701    
    692000   301.90526     -3.0595091      0              60.12086       2207.126     
    693000   296.34846     -3.6028372      0              58.414649      2185.6991    
    694000   302.42594     -4.8416416      0              58.447693      2130.362     
    695000   293.60205     -4.0545172      0              57.388222      2101.6395    
    696000   312.14762     -4.361137       0              60.962674      2187.6219    
    697000   296.50254     -5.2801376      0              56.769594      1968.6324    
    698000   308.69224     -4.7019673      0              59.89873       2140.7785    
    699000   308.51208     -5.4042001      0              59.158793      2196.5662    
    700000   307.38097     -5.5464814      0              58.779803      1993.9554    
    701000   301.8039      -3.5958291      0              59.56333       2070.8065    
    702000   291.95242     -4.8192555      0              56.278262      2089.0437    
    703000   299.41868     -5.354915       0              57.305083      2094.7556    
    704000   303.24899     -4.9523393      0              58.509236      2160.6021    
    705000   296.24257     -4.7833679      0              57.211959      2161.1841    
    706000   299.86751     -5.1990562      0              57.554869      2085.4362    
    707000   298.68006     -4.4823785      0              58.023048      2116.3011    
    708000   294.66698     -4.8551112      0              56.810489      2121.0927    
    709000   306.026       -3.6680876      0              60.374639      2137.1676    
    710000   298.13272     -4.8434052      0              57.547477      2049.506     
    711000   308.3426      -6.0277939      0              58.499733      2016.9963    
    712000   302.74078     -5.2961792      0              58.059041      2000.7388    
    713000   309.32838     -5.1432201      0              59.590602      2070.4749    
    714000   294.22149     -3.211457       0              58.360914      2171.7778    
    715000   295.4665      -3.4637418      0              58.369175      2168.8482    
    716000   297.44076     -5.338982       0              56.907093      2058.4148    
    717000   298.90349     -6.1533545      0              56.398829      2091.4386    
    718000   292.46775     -5.2334753      0              55.971886      2088.4786    
    719000   300.41733     -4.1458129      0              58.723175      2137.6387    
    720000   308.75715     -3.3689597      0              61.245321      2173.2398    
    721000   296.96499     -3.8928072      0              58.253702      2149.77      
    722000   298.0602      -3.6211898      0              58.754515      2271.1981    
    723000   305.34177     -5.6542254      0              58.245311      2062.6696    
    724000   302.65639     -5.5990005      0              57.738561      2011.0541    
    725000   308.47989     -4.7977833      0              59.758474      2088.7146    
    726000   300.56019     -4.0929918      0              58.805892      2104.3345    
    727000   299.03599     -4.9482042      0              57.631708      2054.9316    
    728000   297.02069     -4.1615029      0              57.996662      2185.184     
    729000   302.42336     -3.5074652      0              59.78133       2094.3397    
    730000   298.62539     -5.9208718      0              56.573112      1954.259     
    731000   293.42164     -5.877889       0              55.527095      2037.758     
    732000   299.51794     -5.631001       0              57.049769      2067.616     
    733000   295.90601     -5.628625       0              56.29627       1966.5734    
    734000   296.8553      -4.9557892      0              57.167765      2226.4216    
    735000   305.17105     -2.6915264      0              61.172284      2200.4439    
    736000   297.53372     -3.424998       0              58.840531      2145.3       
    737000   306.25582     -5.4319377      0              58.658885      2148.4477    
    738000   302.93656     -3.8230269      0              59.573166      2146.6806    
    739000   306.81816     -3.4812599      0              60.727244      2121.9635    
    740000   295.71436     -4.4616058      0              57.423181      2042.7108    
    741000   297.7666      -3.9173709      0              58.396894      1990.0777    
    742000   292.13062     -3.0465074      0              58.088302      2028.6912    
    743000   296.97231     -3.9311556      0              58.216886      2144.2386    
    744000   298.11786     -4.6378585      0              57.749914      2099.4278    
    745000   297.51356     -4.8251894      0              57.43612       2098.349     
    746000   298.99939     -4.130329       0              58.441924      2143.7132    
    747000   300.37768     -4.2599465      0              58.600743      2146.141     
    748000   301.17442     -4.9970788      0              58.030348      2045.8125    
    749000   305.09038     -6.2402053      0              57.606721      2001.6549    
    750000   298.71764     -4.669296       0              57.843995      2065.1765    
    751000   301.04962     -5.1497326      0              57.851576      2076.4993    
    752000   295.79366     -5.4882401      0              56.413143      2068.2237    
    753000   309.63229     -4.9027707      0              59.894653      2124.634     
    754000   296.83552     -3.2633854      0              58.856029      2094.5712    
    755000   301.62205     -4.0908388      0              59.030264      2107.7674    
    756000   303.96091     -5.1663269      0              58.444233      2134.2485    
    757000   305.21727     -4.0358943      0              59.837588      2040.3156    
    758000   304.18476     -3.5004994      0              60.156908      2214.9717    
    759000   306.06201     -6.1321443      0              57.918117      2066.9304    
    760000   296.81305     -3.4216382      0              58.693075      2110.4489    
    761000   302.80324     -3.5845803      0              59.783713      2210.2575    
    762000   296.06185     -4.1000995      0              57.857408      2012.4587    
    763000   293.6113      -3.5959148      0              57.84876       2106.8588    
    764000   309.1844      -5.7398509      0              58.96384       2019.1319    
    765000   297.70843     -4.3711817      0              57.930909      1973.3255    
    766000   293.92729     -4.5342049      0              56.976599      2143.7033    
    767000   301.62775     -5.3679681      0              57.754327      2108.7583    
    768000   296.28912     -4.8836271      0              57.121441      2099.8773    
    769000   302.16287     -3.3965657      0              59.837715      2119.8055    
    770000   306.85278     -4.0960186      0              60.11973       2154.7622    
    771000   310.24224     -3.209665       0              61.715404      2237.0084    
    772000   306.09008     -5.4785074      0              58.577629      2096.0547    
    773000   301.07128     -2.1964107      0              60.809431      2117.0853    
    774000   301.30323     -4.853262       0              58.20112       2135.0971    
    775000   303.24818     -5.6843278      0              57.777079      1989.2956    
    776000   294.01443     -5.7659138      0              55.763126      2077.6298    
    777000   311.57763     -5.8626569      0              59.341871      2045.4925    
    778000   306.83358     -4.4365469      0              59.775184      2038.9338    
    779000   302.34761     -3.3899768      0              59.882966      2148.7199    
    780000   290.80568     -4.6280094      0              56.229527      2049.5383    
    781000   304.69337     -4.6563486      0              59.107495      2119.221     
    782000   293.82945     -4.2269445      0              57.263383      2154.3208    
    783000   288.28411     -4.5423365      0              55.787506      2113.9277    
    784000   304.07996     -5.9812289      0              57.654245      2053.9292    
    785000   302.24758     -3.8265888      0              59.425419      2162.6094    
    786000   306.92682     -3.193101       0              61.038142      2183.7509    
    787000   305.37819     -4.3000581      0              59.6071        2098.7249    
    788000   304.32788     -3.2674803      0              60.419877      2132.5017    
    789000   297.28279     -4.9277732      0              57.285243      2173.1527    
    790000   294.70674     -5.6084627      0              56.065458      2148.7333    
    791000   300.42797     -4.2820014      0              58.589213      2162.8144    
    792000   302.56839     -6.0957834      0              57.223361      2090.8134    
    793000   308.64168     -5.0522761      0              59.537839      2177.5758    
    794000   301.11582     -5.7299247      0              57.285239      2025.5413    
    795000   298.09443     -4.6508533      0              57.732016      2120.9229    
    796000   300.18203     -3.8918037      0              58.927942      2179.6262    
    797000   300.11137     -4.4683151      0              58.336643      2043.7875    
    798000   294.43774     -5.4010346      0              56.216591      2106.2421    
    799000   310.33157     -4.3717064      0              60.572057      2128.3393    
    800000   299.37263     -5.9598738      0              56.690487      2119.5811    
    801000   299.23686     -5.3905304      0              57.231419      2026.2941    
    802000   285.62277     -4.493963       0              55.278936      2122.3625    
    803000   313.26097     -4.9427282      0              60.614077      2036.0909    
    804000   295.55568     -3.7345378      0              58.117043      2119.0276    
    805000   303.08733     -4.2614125      0              59.166331      2114.6189    
    806000   297.00721     -4.0046055      0              58.15074       2035.3252    
    807000   308.83664     -5.5292461      0              59.101669      2055.465     
    808000   309.58413     -3.2672789      0              61.520065      2221.6607    
    809000   291.88762     -3.7964651      0              57.287492      2169.2385    
    810000   299.42627     -4.2863611      0              58.375225      2132.6817    
    811000   303.69545     -6.4958632      0              57.059145      2119.9774    
    812000   295.10377     -5.4723118      0              56.284697      2040.753     
    813000   296.54985     -5.560006       0              56.499626      2091.8858    
    814000   299.28262     -5.0305122      0              57.601013      2077.1723    
    815000   295.61766     -4.8991871      0              56.965363      2057.0915    
    816000   292.53068     -4.1024623      0              57.11607       2036.5796    
    817000   308.548       -2.978621       0              61.591889      2014.1988    
    818000   298.54468     -3.5110011      0              58.966094      2142.7167    
    819000   310.06607     -3.7399113      0              61.14829       2107.3763    
    820000   293.44554     -4.9612387      0              56.448747      2016.4887    
    821000   293.82548     -4.8129148      0              56.676583      2042.2737    
    822000   297.32961     -5.0709604      0              57.151854      2055.7443    
    823000   298.12049     -3.9680213      0              58.420302      2069.701     
    824000   293.79704     -4.225239       0              57.258307      2187.979     
    825000   293.0253      -5.7751526      0              55.54689       1994.9047    
    826000   297.77156     -5.6705311      0              56.64477       2122.5504    
    827000   292.62001     -3.9680763      0              57.26915       2132.6877    
    828000   305.02408     -4.3725705      0              59.460483      2076.4047    
    829000   307.66798     -4.742357       0              59.64399       2078.2015    
    830000   297.58178     -4.7790576      0              57.496528      2046.11      
    831000   300.15709     -4.8472006      0              57.967327      2088.8567    
    832000   296.89057     -5.5303662      0              56.60057       2158.3889    
    833000   301.14284     -5.4520323      0              57.568785      2077.1353    
    834000   306.10571     -5.6243907      0              58.435017      2054.5607    
    835000   297.58833     -4.6318252      0              57.645133      2115.7626    
    836000   295.27802     -4.6329362      0              57.160536      2094.8037    
    837000   303.57448     -5.1535622      0              58.37613       2074.2018    
    838000   300.32737     -4.8119884      0              58.038174      2117.1132    
    839000   300.01114     -5.2107032      0              57.573281      2119.2298    
    840000   306.44184     -5.3286519      0              58.801099      2138.9341    
    841000   305.58136     -6.2799954      0              57.669681      2089.4331    
    842000   298.45447     -6.6276204      0              55.830595      1964.3645    
    843000   300.62165     -5.8453376      0              57.066408      1977.6936    
    844000   303.299       -4.994318       0              58.477724      2032.7259    
    845000   306.09693     -5.5846401      0              58.472929      2099.8676    
    846000   306.60547     -6.1026924      0              58.061301      1976.617     
    847000   308.49678     -3.9410468      0              60.618746      2180.1589    
    848000   299.76736     -4.6533838      0              58.079583      2070.7684    
    849000   301.29638     -4.7570332      0              58.295915      2074.2286    
    850000   305.90382     -4.3729833      0              59.644174      1977.0926    
    851000   296.32882     -3.8239486      0              58.189429      2184.8686    
    852000   304.75374     -4.4250572      0              59.351422      2035.9658    
    853000   300.30436     -3.3002075      0              59.545139      2129.3625    
    854000   305.32071     -4.873506       0              59.021623      2001.9363    
    855000   287.14859     -4.1806487      0              55.91156       2152.9253    
    856000   295.13546     -4.4324077      0              57.331232      2112.594     
    857000   296.18406     -5.0844218      0              56.89866       2026.7048    
    858000   306.49216     -4.609832       0              59.530448      2094.7391    
    859000   295.50079     -3.7583168      0              58.081777      2137.7057    
    860000   305.14145     -3.7402953      0              60.11732       2159.8878    
    861000   305.58372     -5.6594337      0              58.290737      2119.9911    
    862000   298.14559     -5.6330333      0              56.760542      1981.2548    
    863000   306.2567      -4.5019165      0              59.589089      2099.6242    
    864000   291.82404     -4.9306604      0              56.139992      2027.5677    
    865000   300.44354     -4.9353163      0              57.939158      2134.5726    
    866000   297.19721     -4.5448958      0              57.65021       2088.1872    
    867000   301.20229     -5.0971505      0              57.936108      2174.5403    
    868000   308.64532     -5.1736469      0              59.41723       2053.6324    
    869000   299.96578     -5.0332023      0              57.741288      2085.1738    
    870000   301.01407     -4.4986373      0              58.495231      2055.1392    
    871000   295.60799     -3.6635392      0              58.198988      2117.8087    
    872000   294.19771     -5.3970876      0              56.170308      1974.9346    
    873000   305.72385     -3.379738       0              60.599757      2050.8756    
    874000   308.99111     -5.9412315      0              58.72201       2011.8494    
    875000   299.1649      -4.9231824      0              57.683707      2086.174     
    876000   301.49728     -4.9710881      0              58.123904      2079.043     
    877000   303.86594     -5.2983161      0              58.292371      2068.1591    
    878000   306.29758     -5.266461       0              58.8331        2116.5708    
    879000   294.82208     -5.9191533      0              55.778905      2016.2492    
    880000   305.62094     -5.2095787      0              58.74838       2074.9916    
    881000   302.53095     -5.4638106      0              57.847499      2063.1722    
    882000   309.96636     -5.273945       0              59.593389      2019.0947    
    883000   295.83628     -4.3342473      0              57.576055      2068.9377    
    884000   295.83939     -2.8858844      0              59.025068      2231.991     
    885000   282.19082     -4.5631523      0              54.491534      2142.8015    
    886000   310.35153     -6.2679622      0              58.679976      2111.5725    
    887000   305.38719     -6.0576998      0              57.851341      2049.9316    
    888000   300.39314     -5.3004885      0              57.563436      2047.7695    
    889000   297.56307     -6.713373       0              55.558298      2008.819     
    890000   296.3698      -6.4084376      0              55.613515      2048.7448    
    891000   291.61152     -6.1179758      0              54.908201      1981.2839    
    892000   302.29632     -4.838429       0              58.423779      2148.7409    
    893000   296.80818     -5.9957654      0              56.117929      2007.2653    
    894000   287.3335      -5.7112187      0              54.419687      2053.9304    
    895000   301.34902     -4.0198647      0              59.044099      2104.081     
    896000   298.01442     -3.7023316      0              58.663795      2032.9203    
    897000   293.90037     -4.3855573      0              57.119613      2110.1784    
    898000   298.97925     -3.8291504      0              58.738888      2075.0064    
    899000   298.58722     -5.4932252      0              56.992772      2075.1229    
    900000   306.97329     -2.9321628      0              61.308806      2145.807     
    901000   309.64965     -3.5261595      0              61.274896      2108.2458    
    902000   293.27475     -4.374533       0              56.999711      2124.8777    
    903000   311.14717     -6.3242464      0              58.790198      2068.7327    
    904000   300.08435     -5.4383763      0              57.360929      2038.1338    
    905000   302.55194     -4.2304919      0              59.085211      2049.2879    
    906000   295.55091     -4.7123913      0              57.138191      2196.7149    
    907000   306.57689     -5.2936523      0              58.86436       2142.6994    
    908000   311.42112     -5.9607195      0              59.211055      2049.3843    
    909000   291.36581     -4.8331         0              56.141656      2088.26      
    910000   297.65007     -3.313147       0              58.976731      2177.9216    
    911000   293.65469     -4.6857461      0              56.768009      2114.9963    
    912000   301.03894     -4.4747685      0              58.524306      2067.4258    
    913000   292.45642     -5.8014771      0              55.401514      2124.0084    
    914000   295.6436      -5.0257006      0              56.844279      2084.3376    
    915000   294.87386     -4.1397015      0              57.569193      2157.8134    
    916000   304.13609     -5.4315245      0              58.215696      2089.971     
    917000   307.54576     -2.487449       0              61.873321      2271.9102    
    918000   298.74355     -4.1782349      0              58.340477      2229.1294    
    919000   291.3125      -5.2059467      0              55.757654      2122.1778    
    920000   306.2491      -5.1338026      0              58.955612      2134.0054    
    921000   300.35114     -5.6248468      0              57.230289      1978.8964    
    922000   293.0717      -4.5548543      0              56.776898      1982.3925    
    923000   293.81971     -4.8708503      0              56.61744       2061.7762    
    924000   293.13012     -4.2863678      0              57.057609      2010.1966    
    925000   299.61987     -5.7745727      0              56.92753       2113.6407    
    926000   292.92743     -4.760441       0              56.54112       2135.7316    
    927000   297.91577     -4.8303659      0              57.515116      2156.3122    
    928000   296.63773     -4.3094655      0              57.768557      1926.8538    
    929000   310.0099      -3.5920574      0              61.284388      2103.3713    
    930000   299.77712     -6.442698       0              56.292312      1985.5056    
    931000   295.4076      -5.0558297      0              56.76476       2109.1973    
    932000   312.33461     -3.8305787      0              61.532364      2123.6343    
    933000   293.10774     -5.7164706      0              55.622824      2000.3768    
    934000   308.27763     -3.905814       0              60.608116      2202.5869    
    935000   299.44607     -4.7391304      0              57.926599      2026.188     
    936000   287.4085      -4.8690325      0              55.277569      2143.3541    
    937000   298.64321     -3.3696831      0              59.12803       2138.3781    
    938000   294.38977     -4.2867964      0              57.320792      2141.3251    
    939000   297.69366     -4.1212916      0              58.177709      2092.0279    
    940000   310.16608     -4.2436809      0              60.665449      2152.076     
    941000   298.20758     -5.116781       0              57.289767      2130.1203    
    942000   297.67678     -3.9528061      0              58.342662      2154.7648    
    943000   301.95212     -3.0421852      0              60.147991      2176.6901    
    944000   303.71893     -5.5480104      0              58.011911      2068.2921    
    945000   298.09476     -3.0005369      0              59.382401      2197.6632    
    946000   299.11863     -5.2013394      0              57.395867      2074.8231    
    947000   295.42262     -4.1555277      0              57.668207      2209.8399    
    948000   295.97593     -4.2764392      0              57.663087      2119.2824    
    949000   303.92094     -4.5683672      0              59.033829      2077.4323    
    950000   286.06862     -3.4272732      0              56.438929      2111.9674    
    951000   294.63821     -3.9716776      0              57.687901      2170.3613    
    952000   298.84284     -3.5882585      0              58.951233      2173.2067    
    953000   302.93062     -4.3088542      0              59.086096      2040.104     
    954000   294.66612     -5.4522347      0              56.213186      2037.0544    
    955000   297.74884     -5.9273659      0              56.383181      2030.0078    
    956000   296.83204     -2.946162       0              59.172525      2156.4767    
    957000   302.20922     -3.8095899      0              59.434392      2032.2799    
    958000   297.02195     -5.349312       0              56.809117      2161.8216    
    959000   299.00996     -5.0821064      0              57.492359      2093.1952    
    960000   296.90235     -3.7515912      0              58.381809      2137.4518    
    961000   299.03966     -5.9128648      0              56.667816      2055.6518    
    962000   307.68976     -5.6041057      0              58.7868        2056.8434    
    963000   296.95275     -3.0066327      0              59.137316      2130.6851    
    964000   303.34618     -5.1094304      0              58.372485      2135.6839    
    965000   293.63414     -5.837302       0              55.612154      1989.097     
    966000   297.56715     -4.3968851      0              57.87564       2125.9454    
    967000   295.71238     -6.0691127      0              55.81526       2007.193     
    968000   293.14708     -4.9601385      0              56.387388      1997.2417    
    969000   303.27019     -4.7623904      0              58.703622      2126.0827    
    970000   298.13356     -4.6818133      0              57.709245      2076.6495    
    971000   310.5203      -4.5652811      0              60.417978      2139.945     
    972000   301.62344     -5.7576156      0              57.363778      2019.0333    
    973000   308.16066     -5.216018       0              59.273433      2023.3545    
    974000   290.38834     -6.113343       0              54.656857      2067.5356    
    975000   313.12561     -4.406533       0              61.121945      2102.23      
    976000   302.15525     -5.8672887      0              57.365398      2020.1681    
    977000   296.08444     -3.3627066      0              58.599528      2121.4819    
    978000   300.29195     -5.9142202      0              56.928529      2004.3143    
    979000   304.39036     -4.9718163      0              58.728617      2008.0278    
    980000   303.05183     -3.8566721      0              59.563644      2175.3172    
    981000   297.21962     -5.1590742      0              57.040721      2046.9975    
    982000   301.66917     -3.6744803      0              59.456484      2233.5615    
    983000   315.02742     -3.9455866      0              61.980887      2077.1221    
    984000   298.58605     -4.8794569      0              57.606295      2152.1761    
    985000   299.83279     -3.5389759      0              59.207685      2126.3082    
    986000   299.76903     -4.5795775      0              58.153739      2076.1763    
    987000   295.55449     -4.6586647      0              57.192667      2152.1866    
    988000   305.92858     -5.0994316      0              58.922907      2181.9197    
    989000   292.52585     -4.5224833      0              56.695038      2044.5425    
    990000   300.0446      -4.5279398      0              58.263046      2125.6714    
    991000   294.34395     -4.751089       0              56.846909      2045.2727    
    992000   301.85697     -3.916263       0              59.254001      2031.7712    
    993000   302.67944     -3.255129       0              60.087255      2126.6393    
    994000   306.80568     -5.6146372      0              58.591254      2019.4192    
    995000   292.88172     -4.5257021      0              56.766291      2090.042     
    996000   300.98287     -4.3700709      0              58.617268      2120.7822    
    997000   288.01047     -4.9404209      0              55.332157      2079.5401    
    998000   297.19904     -5.0756697      0              57.119819      2164.5233    
    999000   304.92284     -5.0232821      0              58.788584      2090.7296    
   1000000   298.17789     -3.7373287      0              58.663008      2119.8249    
   1001000   304.13289     -5.4111568      0              58.235394      1953.8488    
   1002000   288.01204     -2.9233005      0              57.349605      2101.5263    
   1003000   297.70708     -5.0943861      0              57.207421      2003.3604    
   1004000   299.148       -5.2915847      0              57.311769      2078.7146    
   1005000   309.93136     -4.2135778      0              60.646431      2129.1554    
   1006000   303.49143     -3.1840824      0              60.328229      2144.8856    
   1007000   289.71072     -4.4615277      0              56.166865      2093.7144    
   1008000   295.57363     -4.3348772      0              57.520459      2003.2278    
   1009000   295.58002     -4.3865965      0              57.470077      2050.1356    
   1010000   303.46049     -5.2397395      0              58.266096      2111.3907    
   1011000   292.91262     -3.8636279      0              57.434833      2104.5719    
   1012000   297.13953     -3.3875635      0              58.795473      2164.2739    
   1013000   309.45886     -4.9036447      0              59.857484      2180.6503    
   1014000   301.62494     -4.4451647      0              58.676542      2111.8115    
   1015000   305.21397     -4.5271978      0              59.345593      2031.2627    
   1016000   300.12412     -4.9457668      0              57.861861      2110.2163    
   1017000   303.46646     -4.9134148      0              58.593671      2005.0465    
   1018000   287.61265     -5.1603492      0              55.028976      2085.088     
   1019000   295.98523     -4.6648673      0              57.276606      2088.1198    
   1020000   289.7303      -4.3903882      0              56.242101      1991.8781    
   1021000   302.61286     -5.46181        0              57.866642      2085.0575    
   1022000   299.63002     -2.8834097      0              59.820816      2169.7036    
   1023000   300.74909     -4.6717151      0              58.266702      2119.5859    
   1024000   308.23112     -4.7147158      0              59.789481      2107.431     
   1025000   301.678       -5.1799424      0              57.952869      2070.7996    
   1026000   298.00188     -3.6638587      0              58.699644      2198.6631    
   1027000   294.63466     -4.3534536      0              57.305381      2171.8144    
   1028000   300.13526     -4.2900824      0              58.519876      2073.8692    
   1029000   299.75982     -6.1229873      0              56.608402      2012.3921    
   1030000   303.91629     -4.6171428      0              58.984081      2012.0552    
   1031000   305.46494     -3.8847486      0              60.040565      2173.3911    
   1032000   293.77029     -4.1308341      0              57.347113      2084.7707    
   1033000   290.60038     -3.6892165      0              57.125356      2083.6866    
   1034000   298.71324     -4.0965173      0              58.415853      2112.4829    
   1035000   293.57625     -6.4291809      0              55.00816       2082.6266    
   1036000   300.5508      -5.3261919      0              57.570728      2052.8853    
   1037000   294.72092     -4.7336372      0              56.94325       2148.2719    
   1038000   308.46309     -4.1209709      0              60.43177       2040.5274    
   1039000   307.65595     -3.1546736      0              61.229157      2082.2621    
   1040000   294.29758     -3.5597836      0              58.028512      2014.6041    
   1041000   295.30422     -4.670588       0              57.128368      2163.1036    
   1042000   309.47885     -4.7951121      0              59.9702        2150.3662    
   1043000   304.78309     -4.7604841      0              59.022137      2056.2453    
   1044000   300.18357     -5.0398983      0              57.780171      2097.6324    
   1045000   304.52715     -4.5323828      0              59.196677      2172.8276    
   1046000   298.35641     -3.2676392      0              59.170055      2049.2134    
   1047000   303.39326     -4.6687104      0              58.823057      2057.0708    
   1048000   304.12509     -4.6361209      0              59.008797      2221.7436    
   1049000   301.7487      -3.7081977      0              59.439409      2145.8514    
   1050000   294.18346     -5.7300094      0              55.834402      2159.5827    
   1051000   295.58011     -4.8531813      0              57.003512      2116.4022    
   1052000   310.41194     -3.9757057      0              60.984875      2191.6097    
   1053000   286.21119     -5.38496        0              54.511078      2095.6349    
   1054000   300.21271     -4.8161253      0              58.010042      2054.5748    
   1055000   301.72353     -3.9399898      0              59.202349      2137.091     
   1056000   287.02615     -5.1582773      0              54.908309      2032.8282    
   1057000   296.88325     -3.9257433      0              58.203659      2124.5167    
   1058000   305.39102     -5.062205       0              58.847637      2069.2137    
   1059000   290.9874      -6.8237378      0              54.071828      2005.2302    
   1060000   299.95253     -4.7343019      0              58.037416      2074.6852    
   1061000   299.51716     -7.0687701      0              55.611837      2016.5139    
   1062000   299.68863     -5.2002043      0              57.516287      2026.4608    
   1063000   300.38914     -4.5939986      0              58.269089      2020.8995    
   1064000   299.01453     -4.8093307      0              57.766089      2163.3844    
   1065000   292.81597     -4.2396213      0              57.038614      2075.3934    
   1066000   296.00851     -5.0092852      0              56.937058      1964.1328    
   1067000   299.10677     -5.2891699      0              57.305554      2026.3701    
   1068000   302.69277     -3.8842377      0              59.460937      2084.3654    
   1069000   294.92569     -2.8297862      0              58.889955      2087.0588    
   1070000   297.54927     -4.4102208      0              57.858562      2120.7661    
   1071000   298.17007     -5.224062       0              57.174637      2102.0784    
   1072000   298.8863      -5.151999       0              57.396588      2091.0187    
   1073000   289.71446     -4.1861417      0              56.443032      2098.162     
   1074000   303.20223     -5.7240548      0              57.727735      2076.6183    
   1075000   303.53108     -6.0096435      0              57.510966      2032.6701    
   1076000   300.01339     -3.7485547      0              59.0359        2100.2272    
   1077000   305.28554     -3.2656619      0              60.622106      2188.6557    
   1078000   303.76986     -3.6870133      0              59.883566      2086.9196    
   1079000   310.63647     -4.2408618      0              60.766707      2056.6914    
   1080000   287.76255     -4.7299974      0              55.490696      2107.8587    
   1081000   308.61509     -4.4931557      0              60.091395      2071.5848    
   1082000   290.11807     -5.9955396      0              54.7181        2008.3826    
   1083000   297.42231     -4.989837       0              57.252377      2041.5492    
   1084000   299.80093     -3.4942096      0              59.245783      2107.3932    
   1085000   304.14454     -6.0819348      0              57.567054      2139.3114    
   1086000   296.60673     -4.0338912      0              58.037643      2144.4841    
   1087000   304.43697     -4.869662       0              58.840525      2153.1425    
   1088000   290.82985     -3.4005035      0              57.462091      2040.7217    
   1089000   300.90399     -4.9842806      0              57.986552      2108.0948    
   1090000   299.31604     -4.4388157      0              58.199703      2282.8539    
   1091000   310.0255      -5.123098       0              59.756612      2118.9362    
   1092000   300.31682     -3.9028222      0              58.945131      2133.5492    
   1093000   296.87982     -4.4581655      0              57.670521      2101.8601    
   1094000   296.53546     -4.6876006      0              57.36902       2038.3035    
   1095000   300.40027     -5.5724626      0              57.292954      2059.3907    
   1096000   298.91628     -5.1156058      0              57.439255      2048.8259    
   1097000   304.16591     -4.5306825      0              59.12278       2081.0352    
   1098000   291.48358     -3.7085797      0              57.290822      2055.1368    
   1099000   304.05318     -6.4672517      0              57.162618      2018.7539    
   1100000   296.37298     -4.3084574      0              57.71416       2078.8062    
   1101000   292.18726     -5.9320776      0              55.214586      1972.5045    
   1102000   302.04308     -6.0152827      0              57.193929      2042.0041    
   1103000   294.04588     -4.8788163      0              56.656803      2055.6917    
   1104000   304.535       -6.3485774      0              57.382124      2036.9834    
   1105000   300.25277     -5.0018627      0              57.832688      1946.0823    
   1106000   299.3609      -5.221268       0              57.426638      2133.4642    
   1107000   292.86286     -4.2203854      0              57.067662      2080.7596    
   1108000   290.75439     -5.5067475      0              55.340057      2108.2164    
   1109000   302.33271     -4.5457458      0              58.724077      2063.823     
   1110000   284.83116     -4.9249792      0              54.682257      2158.7119    
   1111000   305.7503      -4.1158662      0              59.869163      2052.4169    
   1112000   307.31051     -5.1688694      0              59.142669      2096.173     
   1113000   298.5292      -3.5317129      0              58.942143      2125.0951    
   1114000   301.84172     -5.5055076      0              57.661565      2030.3967    
   1115000   288.60794     -3.6635377      0              56.734073      2079.2355    
   1116000   293.11418     -4.2253049      0              57.115337      2229.6497    
   1117000   298.65669     -4.9669242      0              57.53361       2114.2497    
   1118000   310.14535     -3.9116609      0              60.99313       2139.1124    
   1119000   299.20203     -5.9807623      0              56.633898      1999.1822    
   1120000   306.91903     -4.6547459      0              59.574866      2048.2206    
   1121000   304.8211      -4.2124118      0              59.578162      2102.8811    
   1122000   303.89473     -5.8275993      0              57.769112      2037.1348    
   1123000   296.78276     -5.4510769      0              56.657296      2045.2405    
   1124000   298.6414      -4.0249975      0              58.472337      2182.903     
   1125000   286.12782     -3.3064748      0              56.572117      2109.9337    
   1126000   303.81361     -4.8658681      0              58.713867      2144.6547    
   1127000   299.57258     -3.3664544      0              59.32575       2056.4711    
   1128000   301.57534     -3.5726464      0              59.538681      2118.7744    
   1129000   308.82469     -2.7773692      0              61.851046      2233.9671    
   1130000   305.30594     -4.0605616      0              59.831475      2160.9762    
   1131000   300.82034     -4.2396042      0              58.713723      2128.0553    
   1132000   309.28422     -2.6802982      0              62.044282      2225.9478    
   1133000   303.55147     -4.9015683      0              58.623309      2049.4047    
   1134000   295.72824     -4.4720535      0              57.415639      2150.7861    
   1135000   299.57205     -4.4804265      0              58.211667      2091.3086    
   1136000   305.65388     -4.8965154      0              59.068338      2047.1659    
   1137000   318.56898     -5.5648346      0              61.102788      2126.0834    
   1138000   314.76661     -2.777504       0              63.09439       2214.4179    
   1139000   306.27542     -5.1455652      0              58.949359      2099.177     
   1140000   300.65809     -3.8459678      0              59.073404      2178.9868    
   1141000   304.50169     -5.7516423      0              57.972089      2093.7267    
   1142000   294.38727     -3.5621096      0              58.044956      2046.6516    
   1143000   283.17644     -4.2145808      0              55.046369      2052.7019    
   1144000   306.11193     -5.3612726      0              58.699437      2112.8843    
   1145000   301.17432     -5.0953056      0              57.932099      1982.2819    
   1146000   291.08782     -5.7745994      0              55.141983      2095.5445    
   1147000   307.26739     -4.3190545      0              59.983461      2136.5164    
   1148000   292.84618     -4.5241884      0              56.760368      2048.6908    
   1149000   302.61894     -2.9765639      0              60.353159      2160.2697    
   1150000   302.75606     -4.6470598      0              58.71136       2113.6426    
   1151000   298.58116     -4.6577405      0              57.826988      2006.918     
   1152000   303.3822      -4.4405062      0              59.048946      2090.8346    
   1153000   300.58572     -5.5689676      0              57.335259      2117.3528    
   1154000   309.16522     -4.971162       0              59.728517      2084.4798    
   1155000   306.99585     -3.5752066      0              60.670482      2102.3373    
   1156000   295.46836     -3.258528       0              58.574779      2107.5997    
   1157000   301.61238     -5.3202087      0              57.798869      1974.773     
   1158000   300.89869     -4.5716189      0              58.398105      2109.8376    
   1159000   305.46037     -3.7735493      0              60.150806      2224.7655    
   1160000   300.57762     -4.2110903      0              58.691443      2044.9198    
   1161000   295.74718     -4.386896       0              57.504759      2139.967     
   1162000   295.56106     -5.2650924      0              56.587614      2003.8162    
   1163000   305.98436     -5.7798146      0              58.254199      2157.4255    
   1164000   300.6987      -3.7141372      0              59.213734      2141.4815    
   1165000   299.23446     -3.430942       0              59.190504      1994.915     
   1166000   306.57416     -4.1820661      0              59.975376      2080.6919    
   1167000   291.01258     -4.8392941      0              56.061541      2143.3808    
   1168000   305.03146     -4.0198488      0              59.814748      2098.3413    
   1169000   288.50105     -4.2290074      0              56.146235      2075.1579    
   1170000   303.78687     -3.538311       0              60.035827      2117.8105    
   1171000   303.07769     -3.3910383      0              60.034688      2190.4591    
   1172000   287.30011     -4.8113484      0              55.31257       2040.0485    
   1173000   296.95689     -4.9561966      0              57.188617      2013.1506    
   1174000   306.47958     -5.2648827      0              58.872765      2100.5921    
   1175000   300.87997     -3.9130636      0              59.052741      2063.3936    
   1176000   301.86416     -5.0702833      0              58.101486      2071.1188    
   1177000   303.98893     -3.0349119      0              60.581512      2112.4661    
   1178000   292.26748     -4.9852957      0              56.178155      2136.6601    
   1179000   301.11384     -5.9409596      0              57.073788      2073.4092    
   1180000   306.26579     -5.8839047      0              58.209004      2092.9379    
   1181000   298.09438     -4.6579837      0              57.724875      2101.5531    
   1182000   309.01138     -4.0098454      0              60.657638      2091.5351    
   1183000   296.73979     -3.9653907      0              58.133991      2048.7997    
   1184000   305.27118     -4.0593533      0              59.82541       2173.7038    
   1185000   306.34224     -4.643949       0              59.464959      2065.0898    
   1186000   300.29324     -5.4392469      0              57.403772      2091.1833    
   1187000   303.4832      -4.2696329      0              59.240955      2137.5724    
   1188000   286.29078     -4.8248154      0              55.087878      2044.4388    
   1189000   290.18944     -4.0165472      0              56.712028      2164.6737    
   1190000   307.14384     -3.7085337      0              60.568126      2087.1937    
   1191000   303.85561     -4.3408836      0              59.24764       2158.3525    
   1192000   303.66089     -6.1363104      0              57.411464      2019.0175    
   1193000   299.42144     -4.7326811      0              57.927894      2156.4821    
   1194000   303.24558     -5.5982201      0              57.862641      2028.6736    
   1195000   303.93745     -6.2158795      0              57.389771      2028.7501    
   1196000   291.12157     -4.9208909      0              56.002752      2084.4685    
   1197000   297.60983     -3.6794403      0              58.602017      2051.0737    
   1198000   294.94847     -2.5436354      0              59.180872      2125.9362    
   1199000   307.49141     -3.9636615      0              60.385736      2188.0309    
   1200000   297.26259     -5.072399       0              57.136391      2040.7395    
   1201000   308.28815     -3.1747288      0              61.341403      2186.3311    
   1202000   292.80609     -5.5199908      0              55.756177      2063.6217    
   1203000   295.47822     -4.0481758      0              57.787193      2150.2815    
   1204000   312.07465     -5.3458181      0              59.962723      2169.7355    
   1205000   295.04504     -3.9203006      0              57.824417      2173.8595    
   1206000   299.3454      -3.7680323      0              58.87663       2125.7987    
   1207000   304.33773     -5.4263145      0              58.263105      1939.2831    
   1208000   302.72685     -4.2980478      0              59.054259      1988.3781    
   1209000   309.31428     -5.2807681      0              59.450104      2131.2333    
   1210000   305.95862     -4.5854313      0              59.443194      2138.3763    
   1211000   300.87595     -5.8356461      0              57.129319      2020.5509    
   1212000   297.44823     -7.1273249      0              55.120312      1989.4968    
   1213000   294.86815     -5.0203078      0              56.68739       2096.8752    
   1214000   305.176       -5.7783918      0              58.086453      2138.2084    
   1215000   306.47167     -5.3274203      0              58.808572      2086.8001    
   1216000   297.51735     -4.6148592      0              57.647244      2103.5594    
   1217000   297.97408     -4.0167481      0              58.340936      2071.2573    
   1218000   299.93508     -2.5223779      0              60.245689      2170.3067    
   1219000   301.49048     -3.4645887      0              59.628979      2018.8034    
   1220000   294.885       -3.0280608      0              58.683165      2201.099     
   1221000   305.27528     -2.2605839      0              61.625037      2290.746     
   1222000   297.47914     -3.5446896      0              58.709418      2212.2442    
   1223000   297.95671     -4.8568333      0              57.497215      2030.3581    
   1224000   296.57402     -4.250328       0              57.814362      2070.6798    
   1225000   304.94423     -4.864147       0              58.952195      2044.0331    
   1226000   301.04297     -4.3361405      0              58.663776      2064.0411    
   1227000   300.46914     -3.8580725      0              59.021758      2122.5326    
   1228000   299.85046     -4.6693128      0              58.081045      2077.1651    
   1229000   293.0332      -3.1883063      0              58.135389      2154.3545    
   1230000   300.84149     -5.0093617      0              57.948391      2068.2142    
   1231000   300.38438     -4.0263104      0              58.835782      1988.7338    
   1232000   300.35147     -2.8659191      0              59.989287      2144.1111    
   1233000   298.39337     -3.6370909      0              58.808339      2121.16      
   1234000   304.78254     -4.5401777      0              59.242327      2141.3327    
   1235000   306.21762     -5.5191868      0              58.563641      2089.4991    
   1236000   302.11902     -5.1682354      0              58.056869      1960.7978    
   1237000   310.82367     -3.6804843      0              61.366262      2176.2787    
   1238000   299.10723     -3.3170854      0              59.277735      2097.877     
   1239000   299.1272      -5.6701111      0              56.928889      2083.233     
   1240000   303.18479     -4.444286       0              59.003855      2088.4817    
   1241000   303.80851     -4.3197206      0              59.258946      2094.977     
   1242000   303.10217     -6.7416915      0              56.689159      2065.1075    
   1243000   296.90411     -5.7375808      0              56.396188      2006.7986    
   1244000   303.00678     -4.2985727      0              59.112315      2137.8379    
   1245000   297.45129     -3.8905667      0              58.357712      2104.0703    
   1246000   305.1337      -4.9279896      0              58.928003      2012.2916    
   1247000   295.7597      -4.5306918      0              57.363583      2151.3546    
   1248000   295.22982     -7.194905       0              54.588481      1979.4923    
   1249000   304.01151     -3.0734496      0              60.547701      2280.8415    
   1250000   305.35909     -4.381503       0              59.521658      2157.6098    
   1251000   300.82105     -3.7984487      0              59.155027      2208.1089    
   1252000   295.6169      -4.595164       0              57.269227      2129.2022    
   1253000   290.55578     -6.4120589      0              54.393182      2075.2759    
   1254000   298.94583     -2.9451047      0              59.61594       2160.0009    
   1255000   306.59676     -4.8161082      0              59.346063      2069.6141    
   1256000   300.19369     -5.6860136      0              57.136172      2069.56      
   1257000   303.85942     -5.2869206      0              58.302401      2041.5193    
   1258000   291.63588     -4.5467097      0              56.484565      2032.5365    
   1259000   305.43773     -5.2651061      0              58.654512      2141.8719    
   1260000   296.5472      -2.3937043      0              59.665373      2125.8671    
   1261000   302.55429     -3.9416148      0              59.37458       2171.6974    
   1262000   296.39945     -3.3209018      0              58.707255      2096.8738    
   1263000   303.38703     -3.6915529      0              59.79891       2085.524     
   1264000   302.91921     -5.2962         0              58.096363      2025.1307    
   1265000   293.58522     -4.6161066      0              56.823111      2203.0784    
   1266000   302.47755     -5.083403       0              58.216731      2135.9769    
   1267000   302.85751     -3.6197828      0              59.759868      2079.1639    
   1268000   309.53009     -4.5149372      0              60.261097      2095.0242    
   1269000   295.99764     -3.8900171      0              58.054053      2192.7973    
   1270000   293.00427     -3.8275305      0              57.49011       2148.9038    
   1271000   303.64753     -3.8374505      0              59.707529      2179.5634    
   1272000   289.36322     -5.7337597      0              54.82191       1999.0775    
   1273000   299.51792     -4.0426179      0              58.638148      1988.9891    
   1274000   303.61472     -3.6291466      0              59.908966      2227.1937    
   1275000   288.10529     -4.2309467      0              56.061474      1980.2446    
   1276000   303.26199     -2.9946637      0              60.469633      2119.4671    
   1277000   294.53824     -5.5400543      0              56.098604      2016.9095    
   1278000   295.71316     -3.9177476      0              57.966789      2041.7139    
   1279000   298.18116     -4.5427394      0              57.85828       2012.0978    
   1280000   305.66754     -4.7058983      0              59.261812      2099.3786    
   1281000   297.54729     -4.9950536      0              57.273315      1940.4726    
   1282000   295.8386      -5.096501       0              56.814285      2055.1459    
   1283000   310.31805     -5.2068987      0              59.734035      2076.2376    
   1284000   296.52829     -3.6620863      0              58.393033      2103.2205    
   1285000   296.89814     -5.5163216      0              56.616198      2047.7192    
   1286000   307.06186     -2.7229479      0              61.536556      2166.4109    
   1287000   293.34414     -5.3686205      0              56.020146      2107.6658    
   1288000   295.32959     -4.7622171      0              57.042049      2054.7885    
   1289000   290.42465     -5.0130307      0              55.764767      2019.6436    
   1290000   296.96368     -5.4018454      0              56.744391      2073.2927    
   1291000   306.34451     -5.121594       0              58.987787      2117.0203    
   1292000   306.56437     -4.1204193      0              60.034972      2155.0961    
   1293000   293.37346     -4.3768739      0              57.018028      1963.0956    
   1294000   294.59137     -5.0104284      0              56.639348      2041.7356    
   1295000   298.23906     -4.7994746      0              57.613663      2085.7464    
   1296000   299.74365     -3.7670737      0              58.960932      2130.1125    
   1297000   292.08801     -3.6745302      0              57.451363      2060.5829    
   1298000   307.85259     -4.3676901      0              60.05729       2195.8931    
   1299000   298.00601     -3.6015918      0              58.762773      2129.3726    
   1300000   303.22022     -4.548372       0              58.907183      2069.8761    
   1301000   309.95494     -5.549398       0              59.315546      2086.1457    
   1302000   304.6527      -5.5841199      0              58.171212      2152.6574    
   1303000   297.79867     -5.8716673      0              56.449309      2081.1421    
   1304000   297.37844     -5.5568872      0              56.676146      2140.1954    
   1305000   283.66345     -2.8938358      0              56.469032      2141.8899    
   1306000   308.07794     -4.9298156      0              59.542325      2056.0886    
   1307000   292.67265     -4.7233724      0              56.52487       2127.056     
   1308000   303.33858     -4.5245209      0              58.955803      2060.2214    
   1309000   292.96153     -4.1055936      0              57.203103      2096.363     
   1310000   294.67675     -6.9816796      0              54.685965      1963.3883    
   1311000   303.08643     -4.8318572      0              58.595698      2146.9462    
   1312000   298.54108     -4.0917788      0              58.384561      2103.5124    
   1313000   300.21181     -4.3857673      0              58.440211      2168.503     
   1314000   296.121       -3.7444769      0              58.225409      2301.1587    
   1315000   294.2484      -3.5875624      0              57.99044       2068.6173    
   1316000   298.93975     -2.6489381      0              59.910833      2188.894     
   1317000   306.2159      -4.2224862      0              59.859981      2104.5057    
   1318000   295.274       -5.0192942      0              56.773337      2049.4676    
   1319000   310.94824     -4.9836537      0              60.089161      2082.3509    
   1320000   301.33044     -5.010605       0              58.049471      2087.8097    
   1321000   314.85968     -4.1037845      0              61.787585      2146.3126    
   1322000   289.64924     -4.5012788      0              56.114247      2027.7293    
   1323000   291.72854     -4.0670331      0              56.983633      2026.2855    
   1324000   294.15803     -3.3326573      0              58.226433      2112.1634    
   1325000   291.77253     -2.7024514      0              58.35742       2114.6745    
   1326000   310.2884      -5.6906776      0              59.24405       2033.734     
   1327000   304.60553     -3.7570754      0              59.988386      2028.4332    
   1328000   309.46451     -3.8366162      0              60.925695      2103.3249    
   1329000   296.68203     -5.4754493      0              56.611843      2155.2454    
   1330000   300.16883     -5.9605817      0              56.856403      2083.9197    
   1331000   296.18344     -4.3812325      0              57.601721      2037.3101    
   1332000   296.26836     -3.8611517      0              58.139572      2152.9138    
   1333000   297.03849     -4.8766254      0              57.285265      2051.7017    
   1334000   306.67536     -4.0465769      0              60.132043      2107.6986    
   1335000   294.56101     -3.8413229      0              57.802101      2107.8952    
   1336000   297.64828     -4.2444435      0              58.045059      2192.8284    
   1337000   295.1952      -2.1564706      0              59.619671      2212.5879    
   1338000   289.83647     -4.9887217      0              55.665988      2023.0677    
   1339000   295.92104     -3.4273933      0              58.500646      2197.7919    
   1340000   299.17116     -3.7240206      0              58.884178      2142.5392    
   1341000   305.05525     -3.0509669      0              60.788609      2140.3048    
   1342000   289.14883     -5.3600346      0              55.150769      2100.0355    
   1343000   310.67385     -6.212086       0              58.803306      2041.214     
   1344000   290.3139      -5.0207715      0              55.733849      1999.7363    
   1345000   302.95321     -4.1378143      0              59.261862      2105.6409    
   1346000   304.12249     -3.9992516      0              59.645124      2103.37      
   1347000   295.84796     -4.7789309      0              57.133815      2065.4205    
   1348000   291.90478     -5.3632269      0              55.724322      1919.9724    
   1349000   295.48391     -4.5633931      0              57.273167      1961.252     
   1350000   304.82685     -4.6348228      0              59.156954      2091.0992    
   1351000   305.92599     -3.909987       0              60.111811      2214.1995    
   1352000   299.06903     -4.8155797      0              57.771247      2062.4515    
   1353000   299.16518     -4.5020642      0              58.104883      2073.8577    
   1354000   291.69512     -6.1689304      0              54.874742      2099.2287    
   1355000   310.49399     -3.5236315      0              61.454121      2213.3622    
   1356000   295.44066     -5.8914883      0              55.936021      2062.9789    
   1357000   295.69693     -4.3034016      0              57.577739      2116.3245    
   1358000   296.67917     -4.8682248      0              57.218471      2094.708     
   1359000   288.35606     -5.386227       0              54.958672      2072.2838    
   1360000   311.01637     -5.9214055      0              59.165666      2002.6643    
   1361000   303.84563     -3.1128343      0              60.473601      2098.9716    
   1362000   306.06722     -3.6975904      0              60.353763      2182.827     
   1363000   296.92855     -3.8620294      0              58.276854      2157.9545    
   1364000   298.9736      -4.3271841      0              58.239672      2037.9527    
   1365000   298.73267     -1.7363847      0              60.780051      2143.5241    
   1366000   290.61051     -4.8165528      0              56.000142      2167.1955    
   1367000   294.10922     -5.4476523      0              56.101224      2031.145     
   1368000   302.29072     -4.2418266      0              59.019209      2160.1445    
   1369000   288.28467     -6.6504969      0              53.679464      1961.9815    
   1370000   296.68935     -5.2508006      0              56.838025      2050.1663    
   1371000   293.37084     -3.5655493      0              57.828804      2125.1578    
   1372000   292.8885      -4.2438932      0              57.049521      2218.2068    
   1373000   298.89961     -2.9962948      0              59.555077      2113.6109    
   1374000   302.86435     -3.2056706      0              60.17541       2205.1193    
   1375000   306.46586     -3.8261746      0              60.308603      2086.7214    
   1376000   303.39799     -3.9894481      0              59.503309      2106.7751    
   1377000   294.73287     -5.790318       0              55.88907       2031.0976    
   1378000   301.7974      -4.2404037      0              58.917395      2116.945     
   1379000   302.18385     -5.9176208      0              57.32105       2043.0695    
   1380000   295.62035     -5.183117       0              56.681997      2113.6644    
   1381000   292.66277     -6.4274785      0              54.818695      2044.242     
   1382000   282.53182     -7.642858       0              51.483191      1973.4002    
   1383000   300.56317     -5.6315227      0              57.267986      2097.1329    
   1384000   303.95064     -5.8055802      0              57.80283       2034.6301    
   1385000   304.57801     -2.5928835      0              61.146819      2063.4705    
   1386000   295.00141     -2.1579652      0              59.577622      2239.2022    
   1387000   305.82348     -3.4775431      0              60.522802      2175.9449    
   1388000   294.21153     -4.1961461      0              57.374141      2113.3546    
   1389000   292.93061     -5.2954643      0              56.006761      2065.565     
   1390000   288.66209     -4.2413879      0              56.167556      2104.6131    
   1391000   303.30589     -4.892326       0              58.581156      2073.741     
   1392000   300.70231     -4.1787747      0              58.749852      2156.7393    
   1393000   290.63021     -4.7901657      0              56.03065       2039.0153    
   1394000   294.31452     -3.9924186      0              57.599422      2076.3897    
   1395000   301.07702     -4.1976649      0              58.809377      2046.792     
   1396000   295.31114     -5.0373864      0              56.763017      2188.3847    
   1397000   299.57393     -3.8060987      0              58.886389      2034.99      
   1398000   287.54344     -4.8740532      0              55.300787      2024.6046    
   1399000   302.7799      -4.534935       0              58.828472      2100.7244    
   1400000   300.67157     -3.995765       0              58.926428      2136.3108    
   1401000   298.05523     -4.4273509      0              57.947315      2139.0077    
   1402000   298.05182     -5.1727886      0              57.201163      2131.5362    
   1403000   301.5618      -5.6511889      0              57.457306      2084.4343    
   1404000   291.57136     -5.161753       0              55.856021      1925.6812    
   1405000   299.86231     -4.9577411      0              57.795097      1941.0962    
   1406000   293.21813     -4.2092626      0              57.153133      2093.6648    
   1407000   300.86811     -3.2806857      0              59.682637      2178.4864    
   1408000   306.6096      -2.6855942      0              61.479264      2152.7446    
   1409000   302.20994     -4.8393462      0              58.404784      2065.545     
   1410000   308.50157     -5.3789263      0              59.181868      2062.7085    
   1411000   294.62473     -5.0794811      0              56.577276      2118.7829    
   1412000   300.06816     -5.2848243      0              57.511093      2138.8854    
   1413000   303.34843     -4.0296076      0              59.452778      2099.7884    
   1414000   300.86205     -3.5390737      0              59.422981      2180.8178    
   1415000   301.2364      -4.2029925      0              58.837404      2073.0492    
   1416000   302.49203     -5.4303024      0              57.872863      2053.6868    
   1417000   305.14932     -5.9114748      0              57.947788      2073.2948    
   1418000   300.94707     -4.2168787      0              58.76297       2076.7894    
   1419000   297.70743     -4.3274436      0              57.974438      2128.6062    
   1420000   298.55383     -5.2455393      0              57.233471      2082.781     
   1421000   298.71478     -4.7420955      0              57.770596      2034.3802    
   1422000   300.15164     -4.0913802      0              58.722007      2165.711     
   1423000   299.71375     -4.3168259      0              58.404923      2134.7805    
   1424000   297.95146     -4.7589073      0              57.594043      2106.1003    
   1425000   299.31923     -4.542525       0              58.096662      2063.1405    
   1426000   298.67725     -3.8526818      0              58.652155      1986.8819    
   1427000   297.39802     -5.5426136      0              56.694517      2055.6593    
   1428000   304.92216     -4.1117919      0              59.699932      2168.931     
   1429000   315.07711     -4.2658351      0              61.671037      2104.6165    
   1430000   309.96997     -4.5849885      0              60.283101      2117.3315    
   1431000   301.11104     -5.5859476      0              57.428215      2053.0091    
   1432000   300.65639     -3.0236507      0              59.895367      2234.4977    
   1433000   294.89501     -5.7757157      0              55.937605      2061.3545    
   1434000   296.2843      -6.634381       0              55.369678      2016.6113    
   1435000   305.35142     -3.2050286      0              60.696527      2153.2771    
   1436000   303.9422      -5.0931222      0              58.513524      2129.1304    
   1437000   302.53804     -3.8609245      0              59.45187       2165.3588    
   1438000   296.58022     -4.8193384      0              57.24665       1996.1102    
   1439000   296.7415      -4.075108       0              58.024632      2101.8382    
   1440000   304.17656     -3.9942564      0              59.661435      2129.7502    
   1441000   295.72651     -3.8055524      0              58.081777      2128.5764    
   1442000   305.72507     -5.3728377      0              58.606912      2059.449     
   1443000   310.0834      -4.1378505      0              60.753978      2022.1186    
   1444000   298.98655     -4.293763       0              58.275802      2079.1744    
   1445000   309.57097     -3.7111785      0              61.073412      2164.4311    
   1446000   293.42299     -5.7246849      0              55.680582      1998.8472    
   1447000   299.8554      -5.0951952      0              57.656196      1996.7911    
   1448000   302.69453     -4.8045021      0              58.541041      2136.4107    
   1449000   298.02483     -4.562296       0              57.806008      2174.1129    
   1450000   305.17074     -4.2646557      0              59.599088      2083.3298    
   1451000   301.767       -4.8065648      0              58.344872      2057.3672    
   1452000   305.0774      -3.8690374      0              59.975174      2167.3057    
   1453000   297.08729     -4.0049371      0              58.167166      2115.827     
   1454000   298.8478      -2.5655772      0              59.974951      2199.9495    
   1455000   306.01591     -4.2287246      0              59.811891      2126.1928    
   1456000   302.64114     -6.0153499      0              57.31902       1941.7976    
   1457000   303.72908     -4.9993902      0              58.562656      1993.9084    
   1458000   296.5742      -4.815783       0              57.248945      2142.7383    
   1459000   305.78121     -5.1866494      0              58.804848      2023.6857    
   1460000   300.5545      -4.9317991      0              57.965894      2058.5966    
   1461000   309.61541     -5.9100093      0              58.883882      2100.4915    
   1462000   304.06268     -4.0974256      0              59.534433      2125.5471    
   1463000   308.61153     -5.2528895      0              59.330917      1988.9191    
   1464000   309.65634     -6.4455769      0              58.356878      2013.4372    
   1465000   300.22445     -4.6057126      0              58.22291       2075.0862    
   1466000   304.8025      -5.71276        0              58.073921      2050.5421    
   1467000   290.47707     -4.84051        0              55.948258      2139.5263    
   1468000   305.65658     -3.7712935      0              60.194124      2222.703     
   1469000   296.51247     -5.4706088      0              56.581202      2104.9509    
   1470000   296.36437     -5.9815875      0              56.039228      2060.52      
   1471000   298.11225     -5.0591874      0              57.327411      2139.1601    
   1472000   302.1884      -3.6611896      0              59.578434      2048.2408    
   1473000   295.05837     -5.288669       0              56.458838      2101.952     
   1474000   303.58289     -5.776866       0              57.754586      2140.6713    
   1475000   299.95332     -4.0953518      0              58.676533      2117.0169    
   1476000   310.3039      -4.3156761      0              60.622297      2140.3782    
   1477000   309.71748     -5.1273707      0              59.68788       2059.056     
   1478000   295.20977     -5.5352099      0              56.243981      2063.9505    
   1479000   299.73315     -6.0280854      0              56.697723      2056.9744    
   1480000   307.63387     -2.4980602      0              61.88115       2082.8604    
   1481000   302.10871     -4.9607515      0              58.262194      2036.3181    
   1482000   299.62543     -4.8468715      0              57.856394      2123.5614    
   1483000   294.41394     -3.8824409      0              57.730204      2051.9703    
   1484000   296.01714     -5.815301       0              56.13285       1999.7855    
   1485000   297.20309     -3.7649889      0              58.431348      2103.7145    
   1486000   295.65933     -5.8753515      0              55.997919      2025.1429    
   1487000   297.7302      -3.9368211      0              58.369824      2115.84      
   1488000   316.62287     -5.2386573      0              61.0217        2127.2109    
   1489000   300.94742     -5.983563       0              56.996357      1972.9258    
   1490000   306.02435     -3.679482       0              60.3629        2253.9547    
   1491000   302.81684     -4.7400826      0              58.631057      2145.3955    
   1492000   288.8863      -4.5459506      0              55.909913      2101.8168    
   1493000   285.61968     -4.7722385      0              55.000014      1871.0017    
   1494000   309.60348     -4.81403        0              59.977363      2075.5428    
   1495000   300.20373     -4.4695475      0              58.35474       2135.5729    
   1496000   294.31554     -4.1284605      0              57.463592      2045.23      
   1497000   299.12024     -5.1709166      0              57.426627      2188.0791    
   1498000   299.06556     -5.60096        0              56.985139      2016.355     
   1499000   297.79298     -5.8349866      0              56.484798      2129.5762    
   1500000   301.65892     -3.7782275      0              59.35059       2153.3589    
   1501000   304.83963     -4.7250196      0              59.069433      2021.0797    
   1502000   298.49726     -2.9775826      0              59.489589      2214.1486    
   1503000   303.28463     -3.1664729      0              60.302562      2145.8117    
   1504000   311.59425     -5.2115385      0              59.996468      2092.1342    
   1505000   302.50806     -3.9341202      0              59.3724        2275.8607    
   1506000   300.20536     -4.0996783      0              58.72495       2055.2383    
   1507000   313.42359     -5.0692833      0              60.521554      2011.8315    
   1508000   298.04095     -4.44914        0              57.922538      2149.4465    
   1509000   294.76286     -4.6334         0              57.052265      2083.7521    
   1510000   301.59661     -3.6345989      0              59.48118       2192.5981    
   1511000   304.89679     -4.7274692      0              59.078946      2095.2648    
   1512000   296.21971     -5.1356869      0              56.854856      2017.2429    
   1513000   297.81917     -3.807859       0              58.517407      2134.2631    
   1514000   296.77675     -6.4209575      0              55.686158      2067.0729    
   1515000   301.17793     -5.2511698      0              57.77699       2134.9792    
   1516000   299.36615     -4.5528251      0              58.09618       2183.3766    
   1517000   294.25556     -4.2105312      0              57.36897       2151.05      
   1518000   295.24613     -4.7171975      0              57.069601      2138.2868    
   1519000   305.10771     -3.4353196      0              60.415234      2201.9756    
   1520000   307.4483      -4.2605676      0              60.079808      2023.0369    
   1521000   290.79224     -5.9024887      0              54.952235      2060.7528    
   1522000   299.41423     -2.7959888      0              59.863079      2137.3706    
   1523000   302.45066     -4.8230004      0              58.471506      2035.6141    
   1524000   299.65526     -4.8759542      0              57.833555      2097.6053    
   1525000   289.4298      -6.528624       0              54.04098       2049.2445    
   1526000   291.1753      -6.1219648      0              54.812923      2085.3576    
   1527000   298.87435     -4.0549549      0              58.491129      2102.8836    
   1528000   299.21792     -5.4869953      0              57.130989      2081.9595    
   1529000   300.78227     -4.6135459      0              58.331814      2079.2705    
   1530000   296.84019     -6.0319953      0              56.088397      2037.8373    
   1531000   291.11318     -5.6199634      0              55.301926      2083.7101    
   1532000   299.6198      -3.6719484      0              59.030138      2091.005     
   1533000   298.29808     -4.3175299      0              58.107958      2038.2034    
   1534000   293.60548     -3.9739402      0              57.469518      2162.3265    
   1535000   303.43443     -4.1733852      0              59.326997      2159.6018    
   1536000   291.08792     -4.6011512      0              56.31545       2092.0978    
   1537000   292.81629     -5.9690591      0              55.309243      2059.3016    
   1538000   296.50482     -4.2182684      0              57.83194       2003.4985    
   1539000   294.48309     -4.941827       0              56.68529       2042.6681    
   1540000   301.24447     -5.4798087      0              57.562277      2034.1748    
   1541000   302.78888     -4.4542254      0              58.911063      2133.3381    
   1542000   298.15656     -3.3084039      0              59.087467      2072.7407    
   1543000   303.8713      -4.5453688      0              59.046438      2033.0563    
   1544000   305.68533     -4.6262771      0              59.345157      2172.2055    
   1545000   293.62516     -4.2373486      0              57.210227      2128.5541    
   1546000   296.69753     -4.7152492      0              57.375289      2114.3014    
   1547000   295.81564     -3.0857574      0              58.820224      2265.0449    
   1548000   307.47326     -5.8697099      0              58.475889      2021.6309    
   1549000   289.09015     -5.2451344      0              55.253391      2100.1136    
   1550000   301.35794     -3.9251244      0              59.140707      2115.1218    
   1551000   299.23947     -4.8186569      0              57.803839      2069.3542    
   1552000   297.38427     -3.8940005      0              58.340252      2011.229     
   1553000   304.77536     -4.2989976      0              59.482005      2107.9761    
   1554000   293.39227     -5.2843694      0              56.114469      2036.4133    
   1555000   297.48026     -5.5736966      0              56.680644      2044.8087    
   1556000   302.4361      -3.713482       0              59.577978      2152.7935    
   1557000   298.19613     -3.8419739      0              58.562178      2119.2853    
   1558000   299.12195     -3.6771577      0              58.920742      2066.3103    
   1559000   304.82865     -4.8090309      0              58.983123      2134.82      
   1560000   310.67118     -4.8093608      0              60.205472      2109.9379    
   1561000   295.26764     -4.0714737      0              57.719827      2201.6026    
   1562000   302.28581     -5.6752454      0              57.584764      2082.0011    
   1563000   289.64976     -2.7989241      0              57.816711      2226.7228    
   1564000   282.67427     -4.3595438      0              54.796315      2071.0393    
   1565000   298.45504     -3.6162248      0              58.84211       2074.2863    
   1566000   316.68003     -5.5840599      0              60.688258      2073.5388    
   1567000   295.27697     -2.8473432      0              58.94591       2129.5842    
   1568000   299.02353     -5.007846       0              57.569458      2066.327     
   1569000   299.02227     -5.2499454      0              57.327094      2002.9448    
   1570000   304.59088     -3.6562564      0              60.086139      2157.8461    
   1571000   306.49636     -5.2043487      0              58.936811      1986.2877    
   1572000   294.47743     -6.3755527      0              55.25038       2004.9036    
   1573000   292.06801     -4.3123394      0              56.809368      2024.5431    
   1574000   310.24692     -6.4162772      0              58.50977       2006.2817    
   1575000   296.09794     -3.2793259      0              58.685734      2102.5234    
   1576000   291.1346      -4.2932434      0              56.633127      2076.1172    
   1577000   297.96497     -4.8933475      0              57.462429      2175.5674    
   1578000   297.60859     -5.1113255      0              57.169872      2063.2403    
   1579000   308.9343      -3.9363047      0              60.715047      2176.1326    
   1580000   309.66567     -4.6772444      0              60.127163      2107.6061    
   1581000   302.66467     -4.930458       0              58.408835      2171.7516    
   1582000   297.03925     -3.6159878      0              58.546061      2099.7975    
   1583000   301.55819     -5.393631       0              57.714107      2097.3197    
   1584000   299.42138     -5.6949046      0              56.965659      1941.7845    
   1585000   296.96491     -5.6440871      0              56.502405      2012.9953    
   1586000   301.40875     -4.2339248      0              58.84254       2137.926     
   1587000   310.62368     -3.4755083      0              61.529384      2186.0487    
   1588000   291.51655     -4.7939457      0              56.212357      2100.5581    
   1589000   305.64399     -6.2730845      0              57.689697      2004.0358    
   1590000   293.03085     -4.1178335      0              57.205369      2059.7679    
   1591000   302.88603     -5.5816975      0              57.803921      2006.5129    
   1592000   292.03082     -4.9735152      0              56.140409      2103.5274    
   1593000   296.36142     -4.2132111      0              57.806988      2064.1963    
   1594000   307.99907     -3.5795997      0              60.876035      2085.7124    
   1595000   289.42313     -4.002696       0              56.565512      2034.8545    
   1596000   303.09904     -6.1076994      0              57.322495      1992.4068    
   1597000   292.72569     -4.348623       0              56.910719      2090.262     
   1598000   306.1034      -2.315723       0              61.7432        2240.4605    
   1599000   300.10068     -4.1829315      0              58.619791      2060.0451    
   1600000   301.72391     -5.4760085      0              57.66641       2115.1973    
   1601000   301.45183     -3.689282       0              59.396198      2210.1269    
   1602000   300.5118      -5.1332654      0              57.755492      2050.9734    
   1603000   305.32981     -5.0345884      0              58.862446      2033.5031    
   1604000   305.01063     -4.9395621      0              58.890675      2052.6131    
   1605000   295.07004     -5.0583498      0              56.691599      2093.0856    
   1606000   296.3266      -4.4161885      0              57.596724      2099.5536    
   1607000   295.35051     -6.0224901      0              55.786154      1991.6574    
   1608000   306.81068     -4.6047963      0              59.602143      2033.3232    
   1609000   288.61648     -3.2854894      0              57.113909      2049.9408    
   1610000   297.80638     -5.710467       0              56.612123      2045.6091    
   1611000   307.58414     -4.1235102      0              60.245291      2175.7049    
   1612000   303.95316     -3.907664       0              59.701274      2198.4501    
   1613000   297.46046     -6.1059316      0              56.144265      2010.5204    
   1614000   303.43092     -4.6684478      0              58.831201      2167.4482    
   1615000   300.4088      -5.7043122      0              57.16289       2061.551     
   1616000   292.07193     -4.5768715      0              56.545656      2006.3811    
   1617000   290.1221      -5.2132478      0              55.501234      2014.8115    
   1618000   300.24756     -4.6833267      0              58.150134      2147.4837    
   1619000   296.52607     -4.6315755      0              57.42308       2091.676     
   1620000   305.66397     -5.7420263      0              58.224937      1932.1831    
   1621000   308.2381      -5.2262342      0              59.279423      2071.3366    
   1622000   284.64568     -4.1904933      0              55.377927      2164.2716    
   1623000   302.69548     -5.6015352      0              57.744207      2202.9066    
   1624000   318.18129     -3.6860065      0              62.900484      2211.3534    
   1625000   300.91415     -5.3162756      0              57.656684      1989.0955    
   1626000   302.17368     -4.5789143      0              58.657629      2113.9285    
   1627000   305.26412     -3.5637854      0              60.319501      2152.5873    
   1628000   308.57519     -4.7091512      0              59.867049      2163.3709    
   1629000   301.7157      -4.8838627      0              58.256838      2135.4011    
   1630000   294.63623     -3.8048055      0              57.854359      2231.3383    
   1631000   296.85707     -4.1788344      0              57.945091      2052.4822    
   1632000   302.1038      -2.879151       0              60.342769      2275.881     
   1633000   292.10305     -3.0986884      0              58.030351      2184.1739    
   1634000   294.46296     -5.315594       0              56.30731       1973.0803    
   1635000   304.24802     -3.8223564      0              59.848288      2148.0723    
   1636000   299.48664     -5.0388089      0              57.635411      2048.0086    
   1637000   306.70059     -4.3048857      0              59.879013      2098.979     
   1638000   305.85988     -5.3693627      0              58.6386        2058.7429    
   1639000   304.51126     -4.3995718      0              59.326161      2076.077     
   1640000   287.44371     -2.9984027      0              57.155567      2141.4143    
   1641000   302.42469     -6.2878882      0              57.001184      2042.6329    
   1642000   296.31056     -5.6128796      0              56.396676      2034.315     
   1643000   305.86324     -5.131928       0              58.876738      2034.9485    
   1644000   299.97217     -5.1448501      0              57.630978      2133.2458    
   1645000   294.7512      -4.8447993      0              56.838425      2093.3562    
   1646000   300.3905      -4.093941       0              58.769431      2075.2458    
   1647000   304.13083     -5.9245492      0              57.721572      2035.548     
   1648000   294.82717     -3.8638105      0              57.835312      2040.9083    
   1649000   309.59784     -4.3183789      0              60.471833      2086.5662    
   1650000   296.63578     -4.5633024      0              57.514313      2041.1224    
   1651000   293.7691      -4.3579324      0              57.119766      2153.5096    
   1652000   306.29412     -4.7270192      0              59.371818      2048.206     
   1653000   294.00301     -4.3314746      0              57.195175      2143.192     
   1654000   310.7141      -5.2406164      0              59.783199      1995.6352    
   1655000   303.44328     -4.1570945      0              59.345141      2088.2494    
   1656000   293.28256     -4.1441717      0              57.231708      2119.7281    
   1657000   294.20643     -5.3458163      0              56.223403      2038.324     
   1658000   297.81811     -3.7294977      0              58.595547      2063.6436    
   1659000   300.65227     -3.8890498      0              59.029106      2101.6467    
   1660000   303.78267     -2.3192698      0              61.253991      2225.2889    
   1661000   304.17835     -3.341111       0              60.314953      2153.0155    
   1662000   298.72049     -5.3744381      0              57.139448      2042.7443    
   1663000   307.52009     -3.4326783      0              60.922719      2158.0988    
   1664000   304.43917     -3.9314347      0              59.779213      2106.293     
   1665000   310.87212     -6.1278987      0              58.928987      2032.3849    
   1666000   296.53173     -6.1480596      0              55.907781      2026.704     
   1667000   307.58537     -3.1318694      0              61.237191      2202.0239    
   1668000   300.32822     -3.7821046      0              59.068235      2045.3283    
   1669000   285.8796      -5.3604074      0              54.466239      1957.6435    
   1670000   302.03498     -4.5261895      0              58.681327      2120.3329    
   1671000   290.82994     -3.9156331      0              56.946982      2110.2906    
   1672000   290.23872     -5.9206287      0              54.81826       2056.2175    
   1673000   307.44152     -4.3749274      0              59.964029      2091.5744    
   1674000   304.06547     -4.8106672      0              58.821776      2057.4875    
   1675000   295.01308     -3.9970154      0              57.741013      2033.9947    
   1676000   307.53939     -4.0560673      0              60.303369      2079.9139    
   1677000   304.96611     -6.5713825      0              57.249539      2007.6002    
   1678000   300.96822     -4.957253       0              58.027022      2083.1353    
   1679000   299.11444     -6.0191679      0              56.577162      1968.2364    
   1680000   298.0549      -3.5540928      0              58.820505      2128.0686    
   1681000   309.20033     -3.4333783      0              61.273648      2195.7788    
   1682000   309.80369     -4.9274168      0              59.905874      2115.4672    
   1683000   303.09881     -5.2134628      0              58.216685      2070.7747    
   1684000   295.8189      -4.1524679      0              57.754196      2192.8827    
   1685000   302.16062     -4.2156716      0              59.018138      2126.663     
   1686000   298.62894     -4.3679237      0              58.126805      2068.8063    
   1687000   298.04283     -5.0963707      0              57.2757        2105.4413    
   1688000   312.83851     -4.923809       0              60.544586      2035.0263    
   1689000   302.11723     -5.3467115      0              57.878019      2093.8707    
   1690000   289.55586     -4.2117113      0              56.384274      2141.7453    
   1691000   301.95553     -6.1263645      0              57.064525      2035.4219    
   1692000   304.93169     -3.6052294      0              60.208489      2218.6157    
   1693000   303.28108     -3.635568       0              59.832722      2079.949     
   1694000   309.29243     -2.7193474      0              62.006952      2135.9528    
   1695000   312.75683     -3.6467126      0              61.80459       2145.3962    
   1696000   297.40665     -5.2146518      0              57.024284      2090.0527    
   1697000   308.48608     -4.3019256      0              60.255627      2065.4675    
   1698000   295.44479     -4.3609959      0              57.467378      2022.0346    
   1699000   309.50416     -3.4400443      0              61.330564      2167.3455    
   1700000   295.77076     -4.0879427      0              57.808647      2074.7912    
   1701000   303.72013     -4.9277954      0              58.632376      2079.8132    
   1702000   306.66709     -5.5724383      0              58.60445       2012.0608    
   1703000   288.09666     -4.6453525      0              55.645262      2023.6687    
   1704000   302.06592     -6.1505226      0              57.063469      2032.6134    
   1705000   301.61849     -6.1964229      0              56.923935      2076.8484    
   1706000   291.40491     -5.2649421      0              55.717997      2060.0406    
   1707000   300.64016     -4.758593       0              58.157026      2254.9869    
   1708000   297.68887     -5.590707       0              56.707291      2090.8648    
   1709000   298.30631     -4.8729829      0              57.554226      2068.8841    
   1710000   297.86473     -4.4300636      0              57.904737      2051.7425    
   1711000   301.97785     -4.4919481      0              58.703614      2154.9331    
   1712000   293.78294     -4.0693997      0              57.411196      1990.0379    
   1713000   306.18375     -4.464846       0              59.610893      2179.5045    
   1714000   303.86522     -5.762016       0              57.82852       2072.1526    
   1715000   299.29234     -6.1872778      0              56.446281      2063.5751    
   1716000   303.6642      -3.7203009      0              59.828167      2141.2188    
   1717000   300.10015     -4.6171674      0              58.185444      2053.8155    
   1718000   302.40224     -5.1128711      0              58.171504      2193.6944    
   1719000   305.06196     -4.998965       0              58.842014      2179.3431    
   1720000   303.41405     -4.6897616      0              58.806357      2152.5786    
   1721000   295.64966     -7.0907696      0              54.780477      1937.6016    
   1722000   297.94665     -2.6953335      0              59.65661       2204.393     
   1723000   286.04898     -4.9277571      0              54.934335      2165.4464    
   1724000   312.23995     -6.1871719      0              59.155962      2068.8534    
   1725000   301.46746     -5.0345715      0              58.054181      2066.5232    
   1726000   302.60274     -6.8122943      0              56.51404       2025.5585    
   1727000   304.29423     -4.2507189      0              59.429597      2052.3297    
   1728000   294.84825     -4.5934699      0              57.110065      2129.8224    
   1729000   296.12611     -4.193444       0              57.777511      2050.0151    
   1730000   295.1346      -5.0310055      0              56.732453      2086.7255    
   1731000   305.58036     -6.1459874      0              57.80348       2009.9175    
   1732000   291.07418     -4.5736536      0              56.340072      1994.7893    
   1733000   308.12575     -4.9421404      0              59.540005      2068.4447    
   1734000   306.22456     -4.9556615      0              59.128619      2042.545     
   1735000   287.22408     -5.621508       0              54.486499      2040.06      
   1736000   295.00031     -4.1703215      0              57.565035      2031.775     
   1737000   299.34609     -4.4115282      0              58.233279      2060.1922    
   1738000   291.30363     -2.9156004      0              58.046144      1934.366     
   1739000   312.14652     -4.5252225      0              60.798359      2189.7076    
   1740000   296.27267     -5.0297927      0              56.971832      2060.2703    
   1741000   296.94346     -4.1898131      0              57.952192      2087.3743    
   1742000   306.49889     -4.1672774      0              59.974411      2134.6112    
   1743000   291.01518     -3.7634392      0              57.137941      2104.4913    
   1744000   299.1268      -5.5140231      0              57.084892      1987.5372    
   1745000   303.99772     -5.3346213      0              58.283643      2137.3532    
   1746000   288.96404     -4.380645       0              56.091488      2100.0932    
   1747000   292.16105     -5.2114098      0              55.929769      2072.3802    
   1748000   296.6241      -3.843453       0              58.231718      2224.1166    
   1749000   279.35681     -4.2471874      0              54.214419      2052.9153    
   1750000   289.23727     -6.164012       0              54.365301      1964.3276    
   1751000   316.08505     -3.3772998      0              62.770507      2239.7522    
   1752000   302.51879     -5.4965876      0              57.812178      2076.724     
   1753000   308.2636      -4.0606994      0              60.450295      2147.7785    
   1754000   303.76653     -4.230414       0              59.339469      2164.3163    
   1755000   294.01471     -4.5309282      0              56.99817       2088.9341    
   1756000   299.92242     -6.8802029      0              55.885215      2012.2002    
   1757000   292.81898     -6.1328378      0              55.146027      2077.6573    
   1758000   295.35651     -6.8813765      0              54.928524      2009.4836    
   1759000   285.31381     -4.4779677      0              55.230273      2158.5163    
   1760000   308.23862     -4.0303069      0              60.47546       2056.3478    
   1761000   300.36451     -4.4194262      0              58.438508      2098.9332    
   1762000   293.63775     -5.1882992      0              56.261911      2149.2445    
   1763000   304.2022      -1.9665122      0              61.694543      2183.2938    
   1764000   295.61591     -4.3147567      0              57.549427      2093.9824    
   1765000   304.10559     -4.8996868      0              58.741152      2106.4508    
   1766000   288.28431     -2.6297537      0              57.700131      2091.2773    
   1767000   296.06639     -4.705456       0              57.253002      2107.5868    
   1768000   310.7441      -5.6302861      0              59.399808      2031.7876    
   1769000   304.37075     -4.2871267      0              59.409202      2075.1939    
   1770000   291.19588     -4.9013869      0              56.037809      2018.9366    
   1771000   308.14157     -4.7918658      0              59.693591      2208.768     
   1772000   307.44608     -4.8527185      0              59.487191      2212.0185    
   1773000   305.50667     -3.9512756      0              59.982769      2164.6313    
   1774000   303.0449      -4.0978357      0              59.321031      2072.1699    
   1775000   298.16804     -4.0901384      0              58.308135      2162.1555    
   1776000   307.82418     -4.6407687      0              59.778266      2110.9622    
   1777000   301.28458     -6.0283363      0              57.022143      2075.6568    
   1778000   292.5764      -3.9675628      0              57.260537      2184.0748    
   1779000   292.66268     -4.1227801      0              57.123375      2136.5659    
   1780000   305.48731     -5.3389159      0              58.591078      2077.0396    
   1781000   301.78934     -3.7442548      0              59.411857      2184.0079    
   1782000   293.3986      -2.8682949      0              58.531869      2003.3142    
   1783000   300.19108     -3.7310861      0              59.090553      2188.3903    
   1784000   307.73575     -4.7660496      0              59.63448       2119.6517    
   1785000   305.11723     -5.0549203      0              58.797627      2081.8252    
   1786000   294.51066     -4.0376099      0              57.595277      2176.1552    
   1787000   299.22577     -4.1745455      0              58.445083      1995.2666    
   1788000   300.96534     -4.480108       0              58.503564      2141.4628    
   1789000   303.75016     -5.7615199      0              57.804936      2081.7367    
   1790000   289.93463     -6.9169756      0              53.758276      1929.7643    
   1791000   307.01221     -4.652121       0              59.596991      2052.3776    
   1792000   292.84739     -5.6267991      0              55.658012      2141.3821    
   1793000   302.06566     -5.288985       0              57.924952      1974.043     
   1794000   297.49522     -5.0477296      0              57.209742      2142.66      
   1795000   292.95094     -4.4003436      0              56.906137      2139.2319    
   1796000   304.17161     -5.7802058      0              57.874448      2134.7949    
   1797000   298.07767     -2.5504104      0              59.828953      2289.7123    
   1798000   302.42989     -5.991606       0              57.298555      1977.0506    
   1799000   298.7324      -5.3997834      0              57.116596      1981.2096    
   1800000   287.90775     -5.7970467      0              54.454035      2068.9164    
   1801000   303.51414     -4.7558343      0              58.761229      2025.2304    
   1802000   301.96454     -5.8859587      0              57.306818      1987.8551    
   1803000   297.5291      -3.2574011      0              59.007161      2084.8562    
   1804000   287.56489     -3.987744       0              56.191586      2162.965     
   1805000   289.68606     -4.6941451      0              55.929087      1999.5724    
   1806000   305.31612     -5.3463514      0              58.547817      2048.9029    
   1807000   299.92702     -4.5017753      0              58.264605      2056.2777    
   1808000   310.39653     -3.4975385      0              61.459819      2129.011     
   1809000   296.84677     -2.7209791      0              59.400791      2053.973     
   1810000   289.8591      -3.3741471      0              57.285297      2050.1659    
   1811000   300.66751     -4.0700421      0              58.851302      2185.0724    
   1812000   304.40197     -4.6664754      0              59.036387      2104.0525    
   1813000   289.49051     -5.4014193      0              55.180889      2057.8791    
   1814000   290.49843     -3.8587086      0              56.934529      2122.5622    
   1815000   298.43614     -6.6067293      0              55.847651      1988.1962    
   1816000   301.08419     -4.6034736      0              58.405069      1961.7357    
   1817000   298.65441     -4.4943392      0              58.005718      2162.9638    
   1818000   291.18827     -4.4107504      0              56.526852      1994.5495    
   1819000   305.22342     -5.2054222      0              58.669346      2192.8531    
   1820000   297.89867     -4.6551926      0              57.686711      2013.568     
   1821000   302.24768     -4.5910016      0              58.661027      2101.2883    
   1822000   300.18425     -5.9045818      0              56.915629      1961.4847    
   1823000   295.04313     -5.1972474      0              56.547071      2020.9502    
   1824000   316.05494     -4.0468984      0              62.094607      2181.0443    
   1825000   294.88353     -3.8238889      0              57.887028      2087.1091    
   1826000   289.50308     -2.7340725      0              57.850866      2137.2283    
   1827000   298.05562     -6.305919       0              56.068829      2079.5981    
   1828000   295.79692     -5.6803217      0              56.221743      2070.8165    
   1829000   299.88845     -4.8063924      0              57.951916      2137.7078    
   1830000   304.36781     -5.2405484      0              58.455165      2140.0316    
   1831000   289.51654     -4.4975839      0              56.090172      2055.0719    
   1832000   301.74671     -5.4268742      0              57.720316      2085.272     
   1833000   294.68571     -4.6306537      0              57.038866      2057.4957    
   1834000   302.79284     -4.5275409      0              58.838574      2227.1141    
   1835000   302.7577      -5.2002905      0              58.158473      2033.7488    
   1836000   301.11776     -4.6157131      0              58.399854      2095.6709    
   1837000   296.4093      -3.4871779      0              58.543041      2130.3715    
   1838000   296.3898      -2.9960061      0              59.030131      2015.6595    
   1839000   288.44585     -2.8503237      0              57.513366      2127.9593    
   1840000   307.45487     -3.3923291      0              60.94942       2251.0436    
   1841000   296.85713     -3.7619974      0              58.361939      2208.9862    
   1842000   296.84208     -3.0576528      0              59.063134      2067.8798    
   1843000   305.12351     -3.7904974      0              60.063364      2233.4763    
   1844000   299.07844     -3.1810886      0              59.407706      2157.6478    
   1845000   304.87307     -3.6098498      0              60.1916        2090.4779    
   1846000   298.01535     -5.1204485      0              57.245871      2019.3411    
   1847000   294.72872     -4.6200611      0              57.058459      2096.9338    
   1848000   295.20536     -4.6942866      0              57.083981      2065.8348    
   1849000   295.52634     -4.4480594      0              57.397381      2093.1589    
   1850000   292.37232     -3.4305477      0              57.754843      2131.3665    
   1851000   300.63098     -5.5663808      0              57.347317      2005.9422    
   1852000   299.92        -4.2586407      0              58.50627       2136.8384    
   1853000   311.6234      -3.1627197      0              62.051387      2204.3757    
   1854000   300.1281      -5.1774286      0              57.631032      2059.1351    
   1855000   310.01464     -4.304165       0              60.573273      2037.5935    
   1856000   294.76192     -4.2717866      0              57.41368       2012.7612    
   1857000   296.03665     -4.7833186      0              57.168914      2045.9695    
   1858000   305.85414     -4.0566861      0              59.950075      2119.0952    
   1859000   302.40976     -4.4583429      0              58.827605      2134.5338    
   1860000   296.75408     -4.1808305      0              57.921541      2069.4119    
   1861000   299.70127     -4.1619085      0              58.557228      2174.6638    
   1862000   286.31778     -4.8451486      0              55.073196      1916.5362    
   1863000   306.82198     -5.048179       0              59.161123      2187.2238    
   1864000   301.4682      -3.8250347      0              59.263872      2131.8819    
   1865000   297.11131     -7.400345       0              54.776785      1949.2235    
   1866000   293.63408     -5.141219       0              56.308224      2033.4096    
   1867000   312.11529     -5.6478845      0              59.66916       2081.5321    
   1868000   305.37996     -4.5504558      0              59.357074      2107.5161    
   1869000   300.39427     -4.7212634      0              58.142898      2045.0479    
   1870000   299.74753     -5.3048312      0              57.423986      1984.3227    
   1871000   302.18478     -3.8751975      0              59.363669      2119.497     
   1872000   310.47281     -4.2661611      0              60.707159      2236.1761    
   1873000   292.72593     -3.8056158      0              57.453777      2117.846     
   1874000   301.69471     -4.3698646      0              58.766444      2200.6744    
   1875000   301.89721     -4.9008708      0              58.277815      2070.1535    
   1876000   299.06475     -4.7810299      0              57.804901      2034.5042    
   1877000   293.72467     -4.5283055      0              56.940096      2140.3673    
   1878000   297.29539     -5.9306384      0              56.285015      2020.5331    
   1879000   297.0575      -5.7598424      0              56.406027      2066.3661    
   1880000   311.02285     -3.0819095      0              62.006518      2171.0811    
   1881000   307.00791     -3.3423612      0              60.905851      2065.4047    
   1882000   302.18907     -3.8045436      0              59.435221      2157.8205    
   1883000   300.28076     -3.8332608      0              59.007147      2154.0359    
   1884000   301.34454     -4.6520256      0              58.411001      2083.5834    
   1885000   292.1875      -5.2525637      0              55.89415       2051.4917    
   1886000   306.51675     -4.3897705      0              59.755657      2126.9489    
   1887000   305.57762     -2.8255368      0              61.123357      2145.0551    
   1888000   292.44186     -4.022514       0              57.177429      2076.0488    
   1889000   301.17769     -4.1351699      0              58.89294       2133.8159    
   1890000   296.97452     -3.8725438      0              58.27596       2098.808     
   1891000   302.03723     -4.6528804      0              58.555108      2092.566     
   1892000   305.87337     -5.3797177      0              58.631068      2082.9949    
   1893000   297.37732     -3.2043923      0              59.028406      2132.0153    
   1894000   300.78709     -3.2819174      0              59.664451      2173.786     
   1895000   299.50915     -4.4464623      0              58.232469      2188.7783    
   1896000   291.94236     -4.3242773      0              56.771135      2100.4443    
   1897000   300.85611     -1.7390844      0              61.221729      2232.9418    
   1898000   297.84499     -4.6941212      0              57.636548      2121.7945    
   1899000   293.04092     -3.9645496      0              57.36076       2146.6235    
   1900000   300.79621     -4.3862698      0              58.562008      2207.392     
   1901000   299.75989     -4.6009959      0              58.130408      2066.8017    
   1902000   287.33069     -4.6403419      0              55.489977      2081.7761    
   1903000   299.83638     -5.134591       0              57.61282       1994.6297    
   1904000   300.86612     -4.948764       0              58.014144      2046.5801    
   1905000   295.96751     -3.27583        0              58.661935      2234.3965    
   1906000   297.30064     -5.1597779      0              57.056973      2089.1829    
   1907000   293.15422     -5.2778068      0              56.071215      2073.4793    
   1908000   302.35436     -4.5196351      0              58.75472       2112.7143    
   1909000   292.30375     -3.8487269      0              57.322314      2215.6497    
   1910000   299.33703     -3.1133632      0              59.529547      2098.0126    
   1911000   303.10445     -4.638732       0              58.792595      2059.5831    
   1912000   295.47619     -2.8700227      0              58.964922      2012.5497    
   1913000   302.05569     -6.3278913      0              56.883961      1983.5806    
   1914000   307.52197     -3.4283848      0              60.927407      2176.2706    
   1915000   305.3258      -4.8608216      0              59.035374      2056.2516    
   1916000   305.3618      -3.5838494      0              60.319879      2174.4097    
   1917000   294.09767     -4.9090017      0              56.637458      1989.7389    
   1918000   294.82039     -3.7373756      0              57.960328      2203.3173    
   1919000   300.00957     -3.4704391      0              59.313217      2219.3371    
   1920000   297.02963     -3.8321488      0              58.327889      2058.3833    
   1921000   309.5812      -2.9858273      0              61.800903      2145.9688    
   1922000   300.10116     -5.8520498      0              56.950773      2048.0942    
   1923000   300.89898     -4.433198       0              58.536586      2084.251     
   1924000   304.71936     -5.2982605      0              58.471022      2122.591     
   1925000   304.7953      -4.529934       0              59.255241      2099.961     
   1926000   308.72724     -4.0297441      0              60.578278      2130.5868    
   1927000   307.37931     -4.5380505      0              59.787886      2110.8012    
   1928000   291.64082     -4.4751298      0              56.55718       2192.0678    
   1929000   305.4439      -6.2287689      0              57.692139      2025.2592    
   1930000   297.15655     -6.163359       0              56.023239      2026.5627    
   1931000   301.64038     -4.1812519      0              58.943686      2146.3985    
   1932000   301.24737     -3.8656383      0              59.177054      2060.1438    
   1933000   305.23451     -4.5357894      0              59.341301      2067.675     
   1934000   291.32729     -3.9229022      0              57.043794      2023.537     
   1935000   292.27345     -4.4026974      0              56.762003      2145.885     
   1936000   295.06696     -3.8189192      0              57.930384      2168.6247    
   1937000   301.71171     -5.069422       0              58.070444      2020.9966    
   1938000   297.75851     -5.8487265      0              56.463844      2040.9321    
   1939000   297.80449     -3.852322       0              58.469871      2099.7338    
   1940000   299.40245     -3.7506677      0              58.905934      2090.7099    
   1941000   296.62423     -4.559799       0              57.515398      2081.1014    
   1942000   288.58419     -5.053764       0              55.338877      2052.9504    
   1943000   305.13172     -3.8268426      0              60.028737      2185.3203    
   1944000   306.4637      -4.516235       0              59.618089      2009.7289    
   1945000   296.47533     -5.9505716      0              56.093465      2054.9247    
   1946000   298.25652     -4.6942442      0              57.722547      2148.3593    
   1947000   298.75641     -3.9462857      0              58.575117      2052.6569    
   1948000   312.98817     -3.7302998      0              61.769415      2140.5197    
   1949000   308.32568     -3.3850684      0              61.138917      2149.499     
   1950000   301.35586     -4.2137381      0              58.851657      2140.7823    
   1951000   298.57157     -5.2963842      0              57.186337      2060.0437    
   1952000   303.1164      -3.8834772      0              59.550351      2130.4089    
   1953000   297.36426     -5.1813801      0              57.048686      2045.0024    
   1954000   291.76079     -3.640964       0              57.416452      2116.0918    
   1955000   301.04839     -3.6713308      0              59.329721      2121.3397    
   1956000   303.80489     -4.4985361      0              59.079374      2117.4699    
   1957000   306.3628      -4.7271448      0              59.386065      2100.3496    
   1958000   303.76375     -4.7483428      0              58.820958      2087.7217    
   1959000   309.78383     -5.6173485      0              59.211786      2118.2317    
   1960000   301.48851     -4.3106321      0              58.782525      2163.3197    
   1961000   291.06623     -7.4158839      0              53.49618       1953.2822    
   1962000   303.68726     -5.6664826      0              57.886812      2048.4574    
   1963000   297.91241     -4.8949354      0              57.449843      2052.5326    
   1964000   298.84212     -4.0321852      0              58.507155      2150.0449    
   1965000   297.39428     -5.5747397      0              56.661607      2083.8419    
   1966000   293.29993     -3.2913574      0              58.088157      2119.3183    
   1967000   298.27132     -5.2324162      0              57.187472      2078.4101    
   1968000   300.0331      -3.7945191      0              58.99406       2170.1256    
   1969000   303.94199     -4.2244567      0              59.382144      2124.6964    
   1970000   298.89627     -3.765956       0              58.784716      2133.2456    
   1971000   298.41585     -5.2509286      0              57.199205      2044.0096    
   1972000   297.95526     -6.0627717      0              56.290973      2088.3007    
   1973000   295.42899     -4.7481599      0              57.076907      2081.1298    
   1974000   300.80822     -3.9388927      0              59.011898      2035.9848    
   1975000   302.28049     -1.9820381      0              61.276858      2230.3277    
   1976000   288.19332     -4.1787528      0              56.13209       2117.9719    
   1977000   289.47053     -3.500717       0              57.077409      2058.3217    
   1978000   295.60339     -5.3112423      0              56.550323      2137.7248    
   1979000   301.23702     -5.6264714      0              57.414055      2040.7521    
   1980000   300.43283     -3.961108       0              58.911123      2198.6234    
   1981000   297.08606     -5.3030622      0              56.868783      2196.2329    
   1982000   310.85083     -5.7003143      0              59.352114      2026.5731    
   1983000   303.86208     -6.5421263      0              57.047751      2056.7743    
   1984000   299.60407     -5.6963206      0              57.002475      2110.4712    
   1985000   296.13075     -5.5126425      0              56.459283      2187.121     
   1986000   307.98281     -3.5743889      0              60.877844      2073.4629    
   1987000   301.28992     -4.0533265      0              58.998271      2212.6472    
   1988000   301.81034     -4.7936846      0              58.366822      2121.9688    
   1989000   307.42351     -6.402362       0              57.932824      2062.2874    
   1990000   303.98163     -5.3326715      0              58.282224      2017.2192    
   1991000   306.03849     -2.8345274      0              61.210813      2231.7717    
   1992000   296.10488     -2.878414       0              59.088098      2109.3991    
   1993000   295.8189      -4.5333182      0              57.373347      2098.7989    
   1994000   299.39613     -4.9786693      0              57.676609      2112.3747    
   1995000   298.20531     -4.2966789      0              58.109394      2181.3088    
   1996000   301.60033     -3.4887259      0              59.627831      2071.2504    
   1997000   302.96822     -4.6991444      0              58.703674      2111.693     
   1998000   306.02748     -4.2198119      0              59.823223      2112.6595    
   1999000   290.51832     -5.5262514      0              55.27115       1961.0831    
   2000000   306.76211     -5.2896708      0              58.907103      2127.8482    
   2000101   297.12316     -4.7717626      0              57.407847      2116.3333    
Loop time of 14103.6 on 16 procs for 2000000 steps with 1620 atoms

Performance: 6.126 ns/day, 3.918 hours/ns, 141.808 timesteps/s
99.9% CPU use with 16 MPI tasks x 1 OpenMP threads

MPI task timing breakdown:
Section |  min time  |  avg time  |  max time  |%varavg| %total
---------------------------------------------------------------
Pair    | 11069      | 11973      | 12973      | 631.4 | 84.90
Bond    | 1.542      | 1.6018     | 1.6808     |   3.4 |  0.01
Neigh   | 16.195     | 16.787     | 17.374     |  11.4 |  0.12
Comm    | 1057.2     | 2057.1     | 2961.4     |1523.7 | 14.59
Output  | 1.1663     | 1.167      | 1.1693     |   0.1 |  0.01
Modify  | 28.509     | 28.957     | 29.566     |   5.8 |  0.21
Other   |            | 24.76      |            |       |  0.18

Nlocal:         101.25 ave         105 max          97 min
Histogram: 2 2 1 1 0 1 3 3 0 3
Nghost:        5068.56 ave        5102 max        5028 min
Histogram: 1 1 2 1 2 2 1 2 1 3
Neighs:        51649.8 ave       56456 max       46528 min
Histogram: 1 2 2 3 0 1 1 1 4 1

Total # of neighbors = 826397
Ave neighs/atom = 510.1216
Ave special neighs/atom = 0
Neighbor list builds = 10420
Dangerous builds = 0
comm_modify cutoff 27.58
compute myRDF all rdf 1129 cutoff 22.58
fix 2 all ave/time 1 1 1 c_myRDF[*] file ljg2_nvt_47rdf.rdf mode vector
run 0 pre yes post no
Generated 0 of 0 mixed pair_coeff terms from geometric mixing rule
WARNING: Compute rdf cutoff less than neighbor cutoff - forcing a needless neighbor list build (src/compute_rdf.cpp:179)
Neighbor list info ...
  update every 1 steps, delay 0 steps, check yes
  max neighbors/atom: 200000, page size: 2000000000
  master list distance cutoff = 27
  ghost atom cutoff = 27.58
  binsize = 13.5, bins = 4 5 4
  4 neighbor lists, perpetual/occasional/extra = 3 1 0
  (1) pair lj/cut, perpetual
      attributes: half, newton on
      pair build: half/bin/newton
      stencil: half/bin/3d
      bin: standard
  (2) pair gauss/cut, perpetual, copy from (1)
      attributes: half, newton on
      pair build: copy
      stencil: none
      bin: none
  (3) pair gauss/cut, perpetual, copy from (1)
      attributes: half, newton on
      pair build: copy
      stencil: none
      bin: none
  (4) compute rdf, occasional
      attributes: half, newton on, cut 24.58
      pair build: half/bin/newton
      stencil: half/bin/3d
      bin: standard
Per MPI rank memory allocation (min/avg/max) = 3.053e+04 | 3.053e+04 | 3.053e+04 Mbytes
   Step          Temp          E_pair         E_mol          TotEng         Press     
   2000101   297.12316     -4.7717626      0              57.407847      2116.3333    
Loop time of 4.66713e-06 on 16 procs for 0 steps with 1620 atoms

uncompute myRDF
unfix 2
write_data ljg2_nvt_47/ca_md.data nocoeff nofix
System init for write_data ...
Generated 0 of 0 mixed pair_coeff terms from geometric mixing rule
Neighbor list info ...
  update every 1 steps, delay 0 steps, check yes
  max neighbors/atom: 200000, page size: 2000000000
  master list distance cutoff = 27
  ghost atom cutoff = 27.58
  binsize = 13.5, bins = 4 5 4
  3 neighbor lists, perpetual/occasional/extra = 3 0 0
  (1) pair lj/cut, perpetual
      attributes: half, newton on
      pair build: half/bin/newton
      stencil: half/bin/3d
      bin: standard
  (2) pair gauss/cut, perpetual, copy from (1)
      attributes: half, newton on
      pair build: copy
      stencil: none
      bin: none
  (3) pair gauss/cut, perpetual, copy from (1)
      attributes: half, newton on
      pair build: copy
      stencil: none
      bin: none
Total wall time: 3:55:05
