region box block 0 52.794504272175 0 54.794296100667 0 45.195295323908
units metal
dimension 3
boundary p p p
atom_style full
create_box 1 box
Created orthogonal box = (0 0 0) to (52.794504 54.794296 45.195295)
  2 by 4 by 2 MPI processor grid
create_atoms 1 random 1620 42 box
Created 1620 atoms
  using lattice units in orthogonal box = (0 0 0) to (52.794504 54.794296 45.195295)
  create_atoms CPU = 0.003 seconds
mass 1 40.078
pair_style hybrid/overlay lj/cut 25 gauss/cut 25 gauss/cut 25
pair_coeff 1 1 lj/cut 0.009507177838705264 3.7584971993521488
pair_coeff 1 1 gauss/cut 1 -0.0597999248039827 5.991246456844763 0.601172550524922
pair_coeff 1 1 gauss/cut 2 0.0726183915985775 5.919659952808235 0.9307156951487607
run 1
WARNING: No fixes with time integration, atoms won't move (src/verlet.cpp:60)
Generated 0 of 0 mixed pair_coeff terms from geometric mixing rule
Neighbor list info ...
  update every 1 steps, delay 10 steps, check yes
  max neighbors/atom: 2000, page size: 100000
  master list distance cutoff = 27
  ghost atom cutoff = 27
  binsize = 13.5, bins = 4 5 4
  3 neighbor lists, perpetual/occasional/extra = 3 0 0
  (1) pair lj/cut, perpetual
      attributes: half, newton on
      pair build: half/bin/newton
      stencil: half/bin/3d
      bin: standard
  (2) pair gauss/cut, perpetual, copy from (1)
      attributes: half, newton on
      pair build: copy
      stencil: none
      bin: none
  (3) pair gauss/cut, perpetual, copy from (1)
      attributes: half, newton on
      pair build: copy
      stencil: none
      bin: none
Per MPI rank memory allocation (min/avg/max) = 6.986 | 6.996 | 7.007 Mbytes
   Step          Temp          E_pair         E_mol          TotEng         Press     
         0   0              1.2616264e+12  0              1.2616264e+12  6.1842051e+13
         1   0              1.2616264e+12  0              1.2616264e+12  6.1842051e+13
Loop time of 0.0109369 on 16 procs for 1 steps with 1620 atoms

Performance: 7.900 ns/day, 3.038 hours/ns, 91.434 timesteps/s
100.0% CPU use with 16 MPI tasks x 1 OpenMP threads

MPI task timing breakdown:
Section |  min time  |  avg time  |  max time  |%varavg| %total
---------------------------------------------------------------
Pair    | 0.0056352  | 0.0077028  | 0.010583   |   1.5 | 70.43
Bond    | 7.85e-07   | 9.0319e-07 | 1.091e-06  |   0.0 |  0.01
Neigh   | 0          | 0          | 0          |   0.0 |  0.00
Comm    | 0.00026794 | 0.0031429  | 0.0052073  |   2.4 | 28.74
Output  | 4.8344e-05 | 5.2021e-05 | 5.5017e-05 |   0.0 |  0.48
Modify  | 1.331e-06  | 1.5213e-06 | 1.941e-06  |   0.0 |  0.01
Other   |            | 3.675e-05  |            |       |  0.34

Nlocal:         101.25 ave         118 max          87 min
Histogram: 2 0 2 3 3 2 1 2 0 1
Nghost:        5079.88 ave        5239 max        4923 min
Histogram: 3 2 1 1 1 1 2 2 0 3
Neighs:        51689.8 ave       61793 max       40060 min
Histogram: 1 1 1 1 3 2 1 4 1 1

Total # of neighbors = 827037
Ave neighs/atom = 510.51667
Ave special neighs/atom = 0
Neighbor list builds = 0
Dangerous builds = 0
thermo 1000
neighbor 2.0 bin
neigh_modify every 1 delay 0 check yes one 200000 page 2000000000
minimize 0.0 1.0e-8 100 1000
Generated 0 of 0 mixed pair_coeff terms from geometric mixing rule
Neighbor list info ...
  update every 1 steps, delay 0 steps, check yes
  max neighbors/atom: 200000, page size: 2000000000
  master list distance cutoff = 27
  ghost atom cutoff = 27
  binsize = 13.5, bins = 4 5 4
  3 neighbor lists, perpetual/occasional/extra = 3 0 0
  (1) pair lj/cut, perpetual
      attributes: half, newton on
      pair build: half/bin/newton
      stencil: half/bin/3d
      bin: standard
  (2) pair gauss/cut, perpetual, copy from (1)
      attributes: half, newton on
      pair build: copy
      stencil: none
      bin: none
  (3) pair gauss/cut, perpetual, copy from (1)
      attributes: half, newton on
      pair build: copy
      stencil: none
      bin: none
Per MPI rank memory allocation (min/avg/max) = 2.29e+04 | 2.29e+04 | 2.29e+04 Mbytes
   Step          Temp          E_pair         E_mol          TotEng         Press     
         1   0              1.2616264e+12  0              1.2616264e+12  6.1842051e+13
       101   0             -49.675106      0             -49.675106      751.62388    
Loop time of 1.05564 on 16 procs for 100 steps with 1620 atoms

100.0% CPU use with 16 MPI tasks x 1 OpenMP threads

Minimization stats:
  Stopping criterion = max iterations
  Energy initial, next-to-last, final = 
      1261626399824.72  -49.4493735722958  -49.6751059684104
  Force two-norm initial, final = 6.0835214e+13 0.47018245
  Force max component initial, final = 3.3024929e+13 0.052406355
  Final line search alpha, max atom move = 1 0.052406355
  Iterations, force evaluations = 100 116

MPI task timing breakdown:
Section |  min time  |  avg time  |  max time  |%varavg| %total
---------------------------------------------------------------
Pair    | 0.67849    | 0.84157    | 0.99424    |   9.8 | 79.72
Bond    | 9.3044e-05 | 9.6073e-05 | 0.00010058 |   0.0 |  0.01
Neigh   | 0.0084891  | 0.0096584  | 0.01074    |   0.7 |  0.91
Comm    | 0.046487   | 0.19986    | 0.36407    |  20.2 | 18.93
Output  | 4.0994e-05 | 4.2252e-05 | 4.3287e-05 |   0.0 |  0.00
Modify  | 0          | 0          | 0          |   0.0 |  0.00
Other   |            | 0.004415   |            |       |  0.42

Nlocal:         101.25 ave         114 max          89 min
Histogram: 1 1 2 3 1 4 1 0 1 2
Nghost:        5073.12 ave        5227 max        4935 min
Histogram: 2 3 2 0 2 1 2 0 2 2
Neighs:        51684.1 ave       63137 max       42161 min
Histogram: 2 3 1 1 2 1 4 0 1 1

Total # of neighbors = 826945
Ave neighs/atom = 510.45988
Ave special neighs/atom = 0
Neighbor list builds = 6
Dangerous builds = 0
timestep 0.0005
fix 1 all nvt temp 300.0 300.0 $(100.0*dt)
fix 1 all nvt temp 300.0 300.0 0.050000000000000002776
fix removeMomentum all momentum 1 linear 1 1 1
dump 1 all custom 1000 ljg2_nvt_42/ca.traj id mol type mass x y z
dump_modify 1 sort id
run 2000000
Generated 0 of 0 mixed pair_coeff terms from geometric mixing rule
Per MPI rank memory allocation (min/avg/max) = 2.289e+04 | 2.289e+04 | 2.289e+04 Mbytes
   Step          Temp          E_pair         E_mol          TotEng         Press     
       101   0             -49.675106      0             -49.675106      751.62388    
      1000   164.32657     -45.526376      0             -11.137398      1186.6089    
      2000   289.70157     -10.696573      0              49.929905      1794.588     
      3000   302.34237     -6.9371123      0              56.334733      2101.6856    
      4000   310.80899     -5.605368       0              59.438306      2134.1632    
      5000   301.69642     -6.4722063      0              56.66446       1989.1034    
      6000   298.0201      -4.4276272      0              57.939688      2004.3177    
      7000   297.97599     -5.5634084      0              56.794675      2081.8215    
      8000   298.60895     -4.5776184      0              57.912926      2143.2126    
      9000   297.11915     -4.0007428      0              58.178029      2168.3897    
     10000   299.60666     -4.8311215      0              57.868216      2097.6889    
     11000   286.86942     -3.6868955      0              56.346891      2104.1135    
     12000   307.07787     -5.3315043      0              58.93135       2055.4198    
     13000   293.76343     -5.390143       0              56.086369      2077.8531    
     14000   310.26104     -5.7090087      0              59.219994      2103.734     
     15000   301.96433     -4.8458863      0              58.346845      2180.9859    
     16000   289.56718     -5.8187494      0              54.779604      1966.1287    
     17000   300.03605     -5.1074783      0              57.681718      1959.4395    
     18000   299.48221     -4.5185716      0              58.154722      2108.5619    
     19000   302.46853     -3.3771971      0              59.92105       2063.6897    
     20000   306.17761     -5.9916051      0              58.08285       2017.13      
     21000   306.80084     -4.6381064      0              59.566772      2128.6655    
     22000   298.91789     -4.9296845      0              57.625512      2148.3557    
     23000   300.87427     -5.1023919      0              57.862221      2024.578     
     24000   311.3846      -4.1169347      0              61.047199      2096.8401    
     25000   296.77435     -2.6699807      0              59.436632      2144.343     
     26000   298.0786      -4.8241498      0              57.555408      2043.8151    
     27000   305.71214     -3.4282964      0              60.548749      2051.3541    
     28000   314.34702     -4.5037443      0              61.28034       2147.0783    
     29000   297.15924     -5.9561674      0              56.230993      2060.4686    
     30000   294.28413     -3.0627347      0              58.522745      2153.8251    
     31000   310.63366     -3.8922631      0              61.114719      2300.6815    
     32000   285.94645     -4.2309936      0              55.609643      2106.907     
     33000   295.25079     -4.5260682      0              57.261707      2012.7191    
     34000   303.27401     -5.5779205      0              57.88889       2027.4247    
     35000   294.31914     -4.0429321      0              57.549875      2144.4275    
     36000   295.28645     -6.5174298      0              55.277808      2020.6288    
     37000   290.31517     -5.8468952      0              54.907991      1988.2387    
     38000   299.39325     -3.8755252      0              58.77915       2202.2725    
     39000   312.94946     -4.1381467      0              61.353467      2118.3982    
     40000   293.99228     -4.5128138      0              57.01159       2062.179     
     41000   313.44129     -5.2343191      0              60.360222      2026.7159    
     42000   295.75532     -3.6768489      0              58.21651       2141.4937    
     43000   307.43383     -5.9982244      0              58.339121      2092.9375    
     44000   300.45034     -4.6394262      0              58.236471      2116.7871    
     45000   299.00033     -5.626043       0              56.946406      2120.4904    
     46000   293.71427     -5.7937563      0              55.672468      1994.1887    
     47000   290.02791     -6.0364317      0              54.65834       2147.4954    
     48000   291.76708     -4.8454312      0              56.2133        2075.7096    
     49000   296.94311     -2.9165302      0              59.225401      2132.6084    
     50000   303.12825     -3.0908844      0              60.345425      2125.9295    
     51000   301.59666     -4.25666        0              58.859129      2096.8769    
     52000   300.28728     -4.7636248      0              58.078147      2024.0576    
     53000   300.77232     -4.4472608      0              58.496016      2136.4814    
     54000   297.77552     -4.1903273      0              58.125802      2068.6954    
     55000   294.72514     -4.8599194      0              56.817851      2090.594     
     56000   288.76661     -3.9935095      0              56.437306      2060.6353    
     57000   290.38473     -4.5683602      0              56.201084      2004.0427    
     58000   301.26198     -4.5686504      0              58.4771        2090.6111    
     59000   296.66366     -5.2932529      0              56.790196      1988.1297    
     60000   311.97279     -5.4554         0              59.831824      2028.0737    
     61000   289.68982     -4.0092034      0              56.614816      2176.9107    
     62000   298.08775     -4.8567883      0              57.524683      2056.1011    
     63000   299.77285     -5.3391108      0              57.395005      2007.7124    
     64000   305.2974      -4.2054354      0              59.684816      2038.2832    
     65000   299.28858     -4.394956       0              58.237815      2121.6902    
     66000   295.41922     -4.0030004      0              57.820022      2126.5316    
     67000   299.36656     -4.1853243      0              58.463768      2130.9994    
     68000   286.49994     -4.6033103      0              55.353156      2009.7162    
     69000   299.43241     -4.8080029      0              57.854868      2035.8471    
     70000   290.57466     -3.8261589      0              56.983031      2202.3191    
     71000   296.76202     -5.0006746      0              57.103358      2132.9916    
     72000   312.29032     -3.4922609      0              61.861414      2163.788     
     73000   295.09499     -5.6699558      0              56.085214      2062.7195    
     74000   303.84176     -4.5121167      0              59.07351       2015.0962    
     75000   301.07379     -4.6477787      0              58.358587      2171.9774    
     76000   306.63852     -3.8752003      0              60.29571       2132.4154    
     77000   305.98258     -5.2947048      0              58.738935      2048.793     
     78000   290.90363     -5.714209       0              55.163827      1970.2343    
     79000   297.58073     -4.2866886      0              57.988679      2173.6436    
     80000   300.37064     -5.2987025      0              57.560515      2081.9583    
     81000   303.63408     -4.2031155      0              59.339049      2197.9352    
     82000   298.60226     -6.5545119      0              55.934633      2065.2012    
     83000   300.87943     -6.7344639      0              56.231229      2007.7088    
     84000   298.83303     -4.2038708      0              58.333567      1996.2977    
     85000   296.37346     -5.5131412      0              56.509577      2066.225     
     86000   302.55889     -3.6881256      0              59.629031      2178.5384    
     87000   307.37186     -4.8306909      0              59.493686      1999.9135    
     88000   304.07137     -5.1893393      0              58.444338      2041.4224    
     89000   304.62379     -6.812524       0              56.936758      2032.8454    
     90000   318.62255     -7.0380761      0              59.640759      2167.9313    
     91000   296.43572     -5.4673307      0              56.568416      2083.1561    
     92000   313.46569     -3.7521833      0              61.847463      2167.8393    
     93000   302.68117     -3.8645197      0              59.478227      2198.0696    
     94000   301.07021     -5.041052       0              57.964565      2048.4945    
     95000   296.77942     -3.8077865      0              58.299887      2090.8815    
     96000   311.29786     -3.6700972      0              61.475883      2142.5873    
     97000   296.83322     -3.8427231      0              58.276211      2157.6104    
     98000   299.68348     -3.7509401      0              58.964474      2225.1753    
     99000   308.19032     -4.5854202      0              59.910238      2044.4036    
    100000   305.11136     -4.826241       0              59.025076      2149.8433    
    101000   305.53123     -3.4003127      0              60.538872      2172.2929    
    102000   294.59441     -5.5696791      0              56.080734      1979.3572    
    103000   311.26111     -5.4706502      0              59.667639      2079.108     
    104000   301.0712      -3.3254212      0              59.680403      2203.3331    
    105000   303.80009     -5.904714       0              57.672192      2086.5144    
    106000   298.39749     -5.3896385      0              57.056652      2069.657     
    107000   295.54537     -4.8396535      0              57.009769      2094.3895    
    108000   295.07505     -4.8188534      0              56.932145      2089.1013    
    109000   296.89252     -4.7255794      0              57.405765      2112.7959    
    110000   309.74971     -5.120581       0              59.701415      2050.0407    
    111000   296.46534     -5.50434        0              56.537607      2000.4259    
    112000   298.8799      -4.5299311      0              58.017315      2101.9334    
    113000   301.21877     -4.2655894      0              58.771118      2089.5224    
    114000   299.43538     -3.9375707      0              58.725922      2154.3083    
    115000   310.53771     -4.9117686      0              60.075134      2142.6481    
    116000   299.23599     -4.2557811      0              58.365985      1996.6481    
    117000   307.47653     -5.4317113      0              58.914571      2016.0228    
    118000   293.06708     -2.8015761      0              58.529209      2197.2223    
    119000   298.62654     -4.8614614      0              57.632765      2192.8623    
    120000   297.92612     -4.1185149      0              58.229132      2131.785     
    121000   304.30411     -4.1736056      0              59.508777      2175.3492    
    122000   309.91638     -4.8971092      0              59.959765      2172.5338    
    123000   299.11386     -5.6275444      0              56.968663      2136.4703    
    124000   301.01405     -4.5872488      0              58.406616      2052.8125    
    125000   299.60258     -5.2949998      0              57.403483      2020.3999    
    126000   303.3056      -6.9180706      0              56.555352      1983.9827    
    127000   304.71478     -5.1902105      0              58.578115      2086.3714    
    128000   292.99617     -5.4140186      0              55.901927      2020.9724    
    129000   300.54493     -5.1885411      0              57.707149      2067.8371    
    130000   303.28322     -4.1096545      0              59.359084      2232.7551    
    131000   298.57061     -5.7433097      0              56.739211      2046.1011    
    132000   296.97889     -4.9263277      0              57.223091      2049.3667    
    133000   287.0604      -2.2507249      0              57.823029      2052.9769    
    134000   298.48723     -4.6393219      0              57.825751      2011.5261    
    135000   301.86584     -4.19055        0              58.981572      2121.6124    
    136000   296.31601     -5.0178466      0              56.992849      2046.4093    
    137000   298.81486     -5.2709217      0              57.262714      2151.2702    
    138000   303.57093     -3.5354842      0              59.993464      2228.0276    
    139000   311.52887     -4.5916073      0              60.602718      2061.6754    
    140000   294.46412     -4.8469519      0              56.776194      2015.8657    
    141000   305.8501      -4.607001       0              59.398916      2081.3288    
    142000   305.70066     -5.2974503      0              58.677191      2031.7536    
    143000   301.13242     -5.2573845      0              57.761252      1994.9249    
    144000   302.54366     -4.8241701      0              58.4898        2027.8869    
    145000   305.18491     -3.8154114      0              60.051297      2194.0325    
    146000   302.45779     -5.2260633      0              58.069936      2062.7325    
    147000   307.09477     -6.4323518      0              57.834038      2188.841     
    148000   309.37309     -3.8726061      0              60.870574      2253.1776    
    149000   299.89459     -5.2901711      0              57.469421      2107.0358    
    150000   290.23842     -4.1351262      0              56.603698      2053.2145    
    151000   304.18857     -4.4561485      0              59.202055      2131.88      
    152000   291.41191     -5.8573251      0              55.127079      1965.9133    
    153000   291.00859     -4.8158004      0              56.084201      2066.6174    
    154000   288.26782     -4.7601523      0              55.566281      2076.314     
    155000   313.40173     -4.4071644      0              61.179098      2127.9152    
    156000   306.97392     -4.1299457      0              60.111154      2059.7816    
    157000   294.98934     -3.9501502      0              57.782911      2189.2417    
    158000   303.36531     -4.8227859      0              58.663133      2042.5668    
    159000   306.34336     -5.0827743      0              59.026367      2114.8889    
    160000   294.56584     -4.0139609      0              57.630473      2099.9619    
    161000   291.40157     -4.2072373      0              56.775003      2041.2495    
    162000   300.59528     -3.5750537      0              59.331175      2126.5504    
    163000   294.42653     -3.5779891      0              58.037292      2146.2296    
    164000   287.97139     -3.8523874      0              56.412011      2177.926     
    165000   299.72406     -6.1158942      0              56.608012      2051.5659    
    166000   302.31351     -4.5269969      0              58.73881       2123.1242    
    167000   293.44038     -5.2132962      0              56.195611      2119.4205    
    168000   298.05318     -4.073403       0              58.300834      2070.9758    
    169000   304.15853     -4.5492467      0              59.102671      2103.5682    
    170000   300.15993     -6.9159526      0              55.899168      2003.2685    
    171000   295.92534     -5.2829168      0              56.646022      2068.9003    
    172000   299.0213      -4.0547483      0              58.522089      2173.2747    
    173000   296.7609      -4.9955339      0              57.108265      2143.3456    
    174000   294.09004     -4.6084476      0              56.936415      2041.3876    
    175000   308.78691     -4.0757803      0              60.544728      2133.6085    
    176000   300.33524     -5.3565262      0              57.495283      2058.7764    
    177000   295.8558      -3.4102132      0              58.504173      2115.1717    
    178000   291.95618     -6.3903275      0              54.707977      2113.9241    
    179000   306.95267     -4.929681       0              59.306971      2151.2668    
    180000   295.442       -3.9320405      0              57.89575       2118.7735    
    181000   302.18331     -2.7061989      0              60.53236       2137.7515    
    182000   295.70081     -5.8541382      0              56.027814      2074.3129    
    183000   301.47387     -5.4269797      0              57.663112      2062.5504    
    184000   307.18571     -5.5155486      0              58.769873      2108.2808    
    185000   303.72872     -4.2489808      0              59.312989      2062.4788    
    186000   301.4067      -3.960639       0              59.115397      2082.332     
    187000   291.58639     -3.8427154      0              57.178203      2121.3439    
    188000   289.51033     -5.8088489      0              54.777608      2037.2117    
    189000   297.12482     -4.1471491      0              58.032808      1998.9784    
    190000   296.26857     -4.1691169      0              57.831651      2176.0947    
    191000   306.9315      -2.7978165      0              61.434406      2133.9678    
    192000   285.39834     -3.8267285      0              55.899202      2158.9736    
    193000   300.42496     -4.072087       0              58.798498      2133.9888    
    194000   292.68407     -5.3578012      0              55.892831      2054.3569    
    195000   293.49593     -5.6176328      0              55.802898      2101.1253    
    196000   306.58181     -5.087686       0              59.071356      2082.8876    
    197000   301.47996     -2.7407459      0              60.350622      2149.3434    
    198000   298.78254     -4.657942       0              57.86893       2092.9272    
    199000   296.9932      -3.7214742      0              58.430939      2078.2161    
    200000   308.78679     -5.4087066      0              59.211776      2155.1284    
    201000   291.8521      -4.8494279      0              56.227096      2102.1413    
    202000   301.3683      -4.4598812      0              58.608117      2076.058     
    203000   301.72364     -3.8707099      0              59.271653      2050.728     
    204000   295.22576     -3.2966118      0              58.485926      2102.8353    
    205000   304.81393     -3.7221171      0              60.066957      2094.4898    
    206000   290.06535     -4.7310779      0              55.971529      2129.2432    
    207000   297.14008     -4.609271       0              57.573879      2106.6656    
    208000   289.50143     -4.2978527      0              56.286741      1983.4401    
    209000   303.81071     -3.8120079      0              59.767121      2115.3926    
    210000   305.69449     -2.5794745      0              61.393876      2288.6691    
    211000   298.18186     -4.551624       0              57.849542      2051.9198    
    212000   302.69057     -3.5219353      0              59.822778      2149.8891    
    213000   297.83864     -4.3064402      0              58.022899      2044.9108    
    214000   299.09957     -4.7339223      0              57.859295      2069.8291    
    215000   297.38511     -5.3666576      0              56.867771      2084.5268    
    216000   304.19838     -5.477333       0              58.182924      1988.4969    
    217000   300.83703     -2.8695316      0              60.087288      2130.2251    
    218000   299.99629     -2.7705178      0              60.010359      2113.4483    
    219000   297.98479     -5.4239957      0              56.93593       1947.1758    
    220000   305.31899     -5.7439755      0              58.150793      2141.444     
    221000   307.55764     -3.0649037      0              61.298352      2157.2918    
    222000   299.92646     -5.8611623      0              56.9051        2011.9332    
    223000   305.47733     -3.8903419      0              60.037563      2260.8848    
    224000   304.78115     -5.2797474      0              58.502467      2146.2979    
    225000   310.28332     -5.226304       0              59.707362      2010.4106    
    226000   309.47887     -5.0454594      0              59.719857      2083.8584    
    227000   296.61635     -5.1656275      0              56.90792       2037.7443    
    228000   301.49241     -4.6227322      0              58.471239      2145.899     
    229000   292.31697     -4.9029705      0              56.270837      2044.5098    
    230000   294.30621     -4.46102        0              57.129081      2093.7713    
    231000   293.0351      -4.0060416      0              57.318051      2070.2375    
    232000   304.51376     -4.7319069      0              58.99435       2083.3037    
    233000   304.41077     -4.2428409      0              59.461863      2095.9626    
    234000   295.30496     -4.0100255      0              57.789085      2156.0477    
    235000   307.12828     -4.9724183      0              59.300986      2082.962     
    236000   307.60048     -5.8579143      0              58.514307      1946.7899    
    237000   305.98119     -2.8962291      0              61.137119      2171.6449    
    238000   298.9401      -5.3456803      0              57.214164      2096.8543    
    239000   307.32569     -3.8919825      0              60.422732      2206.5216    
    240000   289.04909     -4.2844047      0              56.205528      2100.1803    
    241000   296.72646     -4.2693685      0              57.827224      2194.7035    
    242000   300.86299     -4.7891329      0              58.173119      1965.9351    
    243000   287.53678     -3.8768746      0              56.296572      2203.611     
    244000   298.28957     -5.4497943      0              56.973913      2093.0731    
    245000   298.34988     -5.1142628      0              57.322064      2161.6189    
    246000   305.92593     -4.7152732      0              59.306511      2112.3296    
    247000   293.01591     -2.5070508      0              58.813027      2186.385     
    248000   297.06298     -2.5383354      0              59.62868       2140.178     
    249000   299.51989     -3.7781471      0              58.903033      2171.4884    
    250000   308.77398     -4.0833052      0              60.534497      2063.4021    
    251000   302.50313     -6.1355509      0              57.169938      2141.5144    
    252000   296.44445     -3.5586441      0              58.478931      2133.9679    
    253000   305.58762     -3.5360884      0              60.414897      2126.6182    
    254000   293.10149     -5.1048261      0              56.233161      2152.6563    
    255000   290.51271     -5.0272072      0              55.769019      1992.8115    
    256000   299.73267     -3.30124        0              59.424467      2106.7884    
    257000   307.57498     -5.9914063      0              58.375479      1934.8357    
    258000   294.9204      -6.4076566      0              55.310978      1972.0507    
    259000   306.02993     -5.5282265      0              58.515323      2069.9905    
    260000   292.57244     -6.0393113      0              55.187959      1967.6629    
    261000   303.21518     -2.9025836      0              60.551917      2103.6286    
    262000   302.4231      -5.3988212      0              57.88992       2063.4481    
    263000   299.88095     -2.1071039      0              60.649635      2219.9463    
    264000   292.89317     -4.4532144      0              56.841177      2047.1856    
    265000   286.2345      -5.6753775      0              54.225538      1900.0771    
    266000   299.0527      -3.9400251      0              58.643385      2149.2499    
    267000   301.83597     -4.5766768      0              58.589194      2152.1894    
    268000   302.8663      -4.5230114      0              58.858477      2103.8828    
    269000   298.49431     -4.5045787      0              57.961975      2089.9377    
    270000   286.24816     -6.2348114      0              53.668963      2043.7536    
    271000   294.62771     -5.6129357      0              56.044446      2015.706     
    272000   305.451       -5.0019415      0              58.920453      2057.9766    
    273000   308.66376     -3.5210291      0              61.073707      2146.111     
    274000   306.46646     -4.9914878      0              59.143416      2019.8251    
    275000   295.67493     -3.9493768      0              57.927158      2116.2194    
    276000   304.72007     -4.240733       0              59.528698      2086.367     
    277000   295.96744     -5.5162398      0              56.421511      2080.9426    
    278000   300.02244     -5.1300219      0              57.656327      2050.0237    
    279000   303.76066     -4.0374259      0              59.531228      2131.8533    
    280000   299.12359     -5.4035467      0              57.194698      2065.5116    
    281000   303.31139     -4.4270423      0              59.047592      2170.9836    
    282000   299.17624     -4.661369       0              57.947893      2105.1867    
    283000   308.17591     -2.9880182      0              61.504624      2126.5308    
    284000   310.83421     -5.1705354      0              59.878417      2066.6473    
    285000   298.43241     -5.7079076      0              56.745693      2033.6391    
    286000   295.80387     -4.9663658      0              56.937154      2156.2317    
    287000   293.0369      -5.0821994      0              56.242269      1987.7844    
    288000   307.65269     -5.7228841      0              58.660264      1985.5629    
    289000   297.03815     -5.1598657      0              57.001954      2060.7428    
    290000   304.5627      -5.247001       0              58.489498      2044.0664    
    291000   291.15374     -3.9549701      0              56.975406      2113.8232    
    292000   302.57098     -4.2839217      0              59.035764      2217.7216    
    293000   290.95885     -5.3112193      0              55.578372      2011.4056    
    294000   290.88408     -4.2456583      0              56.628285      2041.551     
    295000   303.80177     -4.4985582      0              59.078698      2189.0414    
    296000   293.28703     -7.0754924      0              54.301322      1991.4273    
    297000   293.22185     -6.5426248      0              54.820549      1890.0617    
    298000   301.60339     -5.7644782      0              57.35272       2032.3536    
    299000   306.30787     -4.8952485      0              59.206465      2039.9403    
    300000   306.91218     -4.3021648      0              59.926015      2101.589     
    301000   300.44678     -3.9110089      0              58.964143      2133.3057    
    302000   298.60112     -4.4293122      0              58.059594      2178.2313    
    303000   302.37667     -4.5308927      0              58.748132      2116.5924    
    304000   299.78927     -4.6476387      0              58.089914      2095.3569    
    305000   298.5144      -4.6647967      0              57.805962      2099.7831    
    306000   292.20464     -4.9169319      0              56.233368      2134.1096    
    307000   302.06078     -4.3515184      0              58.861397      2038.6386    
    308000   310.85035     -5.1944642      0              59.857864      2116.7021    
    309000   286.6067      -5.6960014      0              54.282807      2053.2084    
    310000   290.72489     -5.8327663      0              55.007863      2168.3402    
    311000   297.81989     -4.2933951      0              58.032021      2038.7805    
    312000   307.80971     -4.7960202      0              59.619986      2098.4351    
    313000   296.81023     -4.2594198      0              57.854703      2116.0331    
    314000   294.38192     -5.1728852      0              56.433058      2023.5204    
    315000   298.99008     -4.4478557      0              58.122449      2099.3065    
    316000   310.53015     -5.9029476      0              59.082372      2011.7489    
    317000   295.43137     -5.9886814      0              55.836883      2104.6076    
    318000   290.92392     -4.7547227      0              56.127559      2023.8441    
    319000   299.46294     -4.8906903      0              57.778571      2015.9692    
    320000   289.81167     -4.0975378      0              56.55198       2076.0235    
    321000   294.29689     -4.288539       0              57.299612      2052.5799    
    322000   297.75277     -4.6108623      0              57.700508      2039.1268    
    323000   293.08164     -5.0197101      0              56.314123      2098.1832    
    324000   308.19035     -4.7237934      0              59.771872      2137.0389    
    325000   306.58844     -3.2624152      0              60.898014      2194.9087    
    326000   305.10668     -3.2870782      0              60.563261      2105.5278    
    327000   292.46326     -5.5102948      0              55.694128      2012.9287    
    328000   301.71756     -4.2786249      0              58.862465      2096.0491    
    329000   298.26594     -4.8901034      0              57.528658      2108.3466    
    330000   302.3924      -4.6413977      0              58.640918      2071.7663    
    331000   295.20809     -3.5399345      0              58.238905      2102.8938    
    332000   302.89933     -3.9176047      0              59.470796      2016.9915    
    333000   299.04564     -4.3575322      0              58.2244        2146.513     
    334000   301.90657     -5.9901674      0              57.190478      2026.7197    
    335000   300.91851     -5.520241       0              57.453629      2009.3782    
    336000   292.74026     -4.5811491      0              56.681242      2047.214     
    337000   297.18835     -5.4464116      0              56.746841      2073.7136    
    338000   301.17793     -4.8437576      0              58.184402      2097.9146    
    339000   298.99125     -4.5249592      0              58.045591      2063.9735    
    340000   305.19442     -3.2534707      0              60.615229      2103.9335    
    341000   300.7848      -4.1385856      0              58.807304      2174.8786    
    342000   297.70515     -4.8949098      0              57.406494      2111.1763    
    343000   294.92237     -5.7411391      0              55.977907      2050.338     
    344000   300.04684     -5.0417365      0              57.749717      2135.4242    
    345000   306.2488      -5.1768555      0              58.912498      2012.7918    
    346000   303.35613     -3.8461864      0              59.63781       2095.4556    
    347000   308.00553     -2.9398021      0              61.517184      2191.6569    
    348000   298.1846      -4.7880976      0              57.613642      2049.3949    
    349000   297.03223     -4.0497391      0              58.110842      2052.9478    
    350000   296.68656     -4.5653786      0              57.522862      2115.0733    
    351000   300.16723     -4.6398774      0              58.176772      1982.0223    
    352000   296.56042     -5.4040042      0              56.657839      2071.4017    
    353000   291.82477     -5.8569735      0              55.21383       2075.285     
    354000   298.10951     -4.910254       0              57.475771      1977.6003    
    355000   299.01414     -4.0606709      0              58.514669      2162.4896    
    356000   302.89549     -4.8426241      0              58.544973      2028.2944    
    357000   289.49149     -4.2969328      0              56.285581      2107.9848    
    358000   298.52601     -4.0721296      0              58.401058      2191.5527    
    359000   299.54073     -2.8298537      0              59.855686      2165.8058    
    360000   302.12767     -4.4463982      0              58.780517      2019.6298    
    361000   297.68727     -3.8839153      0              58.413747      2149.5435    
    362000   299.22445     -4.7681219      0              57.85123       2072.9418    
    363000   298.64497     -5.2899466      0              57.208135      2131.4302    
    364000   311.40743     -4.4582749      0              60.710636      2096.1958    
    365000   291.36249     -5.4585994      0              55.515461      2105.5771    
    366000   308.05966     -3.0625211      0              61.405793      2211.5683    
    367000   293.49603     -2.761436       0              58.659117      2257.7464    
    368000   298.9134      -5.783467       0              56.770789      2007.7929    
    369000   295.54371     -4.8222455      0              57.02683       2185.2057    
    370000   305.74812     -3.8683671      0              60.116207      2011.7187    
    371000   290.04278     -3.7753426      0              56.92254       2113.9641    
    372000   296.38029     -4.4578278      0              57.56632       2029.5298    
    373000   309.47823     -4.603829       0              60.161354      2066.2809    
    374000   289.14771     -5.2631783      0              55.247392      2059.414     
    375000   291.75313     -5.4163792      0              55.639432      2194.2961    
    376000   301.40505     -6.3344722      0              56.741218      2077.8253    
    377000   299.51306     -5.7123056      0              56.967445      2010.2236    
    378000   286.36989     -5.471893       0              54.457356      1942.508     
    379000   298.10941     -4.8756989      0              57.510305      2079.6549    
    380000   294.95272     -4.6695608      0              57.055835      2040.7001    
    381000   303.39757     -4.8866368      0              58.606032      2108.6946    
    382000   302.45843     -3.0699397      0              60.226194      2163.0289    
    383000   295.39323     -6.0253051      0              55.792279      2065.525     
    384000   294.7752      -4.8886164      0              56.799631      2081.6114    
    385000   304.14205     -5.8978608      0              57.750607      1992.4359    
    386000   294.30615     -4.1491828      0              57.440905      2033.8562    
    387000   288.92104     -4.0604008      0              56.402733      2023.6999    
    388000   304.82167     -3.1721183      0              60.618575      2099.1015    
    389000   308.23912     -3.2080766      0              61.297794      2188.0283    
    390000   294.77533     -3.2299051      0              58.458369      2147.9902    
    391000   294.80977     -4.3989045      0              57.296578      2197.7899    
    392000   301.53377     -3.0573649      0              60.045264      2026.2509    
    393000   302.54207     -3.3837141      0              59.929923      2099.2347    
    394000   304.77661     -3.8499579      0              59.931305      2159.2528    
    395000   295.28412     -4.6106778      0              57.184073      2118.8881    
    396000   300.57754     -2.6894993      0              60.213015      2184.578     
    397000   299.66616     -3.7099855      0              59.001803      2093.534     
    398000   298.37632     -3.9445886      0              58.497273      2073.8598    
    399000   299.36092     -3.4045441      0              59.243366      2121.0775    
    400000   304.66741     -5.7281599      0              58.030251      2031.6554    
    401000   298.49906     -2.7008658      0              59.766681      2125.0241    
    402000   305.62831     -3.6478738      0              60.311627      2177.3428    
    403000   292.67591     -5.0353512      0              56.213573      2196.075     
    404000   296.04981     -3.4803426      0              58.474646      2144.8097    
    405000   293.46201     -3.7728886      0              57.640544      2124.7732    
    406000   291.58486     -3.1028209      0              57.917778      2079.4378    
    407000   294.21134     -2.7041539      0              58.866092      2173.7425    
    408000   307.40615     -3.3019372      0              61.029616      2146.6808    
    409000   304.85083     -4.756926       0              59.039869      2098.4641    
    410000   299.07442     -2.6816426      0              59.906312      2131.6106    
    411000   292.81442     -2.8770021      0              58.400909      2151.1033    
    412000   292.8468      -2.9146143      0              58.370073      2058.4811    
    413000   293.33654     -4.2659839      0              57.121192      2049.4146    
    414000   302.94936     -4.2289665      0              59.169906      2145.1416    
    415000   312.67697     -4.7155975      0              60.718993      2128.0195    
    416000   307.8232      -5.5054399      0              58.913391      2107.7881    
    417000   301.76933     -4.4472052      0              58.704719      2007.761     
    418000   303.90081     -5.2759762      0              58.322008      2053.1016    
    419000   290.31017     -4.2300365      0              56.523805      2102.7676    
    420000   308.13117     -3.4305793      0              61.052701      2137.1439    
    421000   295.82905     -5.1715194      0              56.737268      2096.3361    
    422000   306.87129     -4.4270613      0              59.792562      2020.0039    
    423000   302.15285     -5.5368539      0              57.69533       2127.4652    
    424000   308.71773     -4.0145118      0              60.591518      2130.091     
    425000   305.44478     -4.1600816      0              59.761013      2166.69      
    426000   293.281       -2.8037819      0              58.57177       2205.6459    
    427000   303.33842     -4.0854584      0              59.394832      2243.6674    
    428000   290.20627     -6.5333937      0              54.198703      1994.5443    
    429000   295.929       -5.2486921      0              56.681013      2010.5797    
    430000   297.8888      -5.4590293      0              56.880807      2098.7107    
    431000   316.60294     -4.6078883      0              61.648298      2123.7111    
    432000   302.6514      -4.8466811      0              58.489836      2095.7417    
    433000   300.15938     -6.096099       0              56.718907      1953.5394    
    434000   301.67455     -3.3849481      0              59.74714       2136.3129    
    435000   298.5909      -5.2516676      0              57.235099      2092.6855    
    436000   304.6631      -5.3478561      0              58.409654      2061.0744    
    437000   298.24031     -4.2375401      0              58.175857      2071.9798    
    438000   291.17483     -4.6100741      0              56.324715      2075.3628    
    439000   296.73449     -5.7204235      0              56.377849      2002.0334    
    440000   291.11068     -5.9422453      0              54.979119      2029.3237    
    441000   295.50144     -4.334332       0              57.505897      2072.53      
    442000   292.07267     -5.1972948      0              55.925388      2029.4495    
    443000   293.30804     -4.3253698      0              57.055842      2179.1251    
    444000   307.39074     -4.6636832      0              59.664645      2074.6408    
    445000   311.65241     -4.2548537      0              60.965324      2088.8369    
    446000   294.33423     -5.764973       0              55.830992      2020.7253    
    447000   301.41277     -4.9125721      0              58.164733      2050.0317    
    448000   303.35723     -3.9449783      0              59.539248      2116.8237    
    449000   301.74628     -3.9946489      0              59.152451      2065.5355    
    450000   304.57085     -4.9170026      0              58.821202      2081.4974    
    451000   302.60243     -3.533806       0              59.792463      2191.4718    
    452000   297.60349     -5.1837585      0              57.096371      2042.7648    
    453000   296.68722     -5.8157115      0              56.272667      2026.4222    
    454000   299.72562     -4.9105923      0              57.81364       2183.8823    
    455000   294.05166     -3.1449115      0              58.39192       2223.0671    
    456000   300.13212     -3.4137744      0              59.395526      2127.2211    
    457000   302.54923     -4.6634938      0              58.651641      2160.5912    
    458000   300.0069      -5.3075633      0              57.475533      2144.5584    
    459000   306.97717     -4.6419944      0              59.599785      2192.7861    
    460000   297.58972     -4.5455832      0              57.731665      2116.0621    
    461000   295.6963      -5.3868643      0              56.494144      2113.2979    
    462000   299.14292     -5.8734809      0              56.728808      2085.2194    
    463000   305.29402     -5.3112369      0              58.578307      2002.6416    
    464000   293.84188     -4.3852868      0              57.107642      2150.1317    
    465000   298.03186     -4.8054296      0              57.564345      2068.3572    
    466000   297.43479     -5.1414363      0              57.10339       1997.8477    
    467000   302.24868     -4.484213       0              58.768025      2096.3014    
    468000   302.30149     -4.089048       0              59.174241      2082.5639    
    469000   299.36565     -6.5098609      0              56.13904       2025.8284    
    470000   289.57859     -4.8070793      0              55.793661      2059.8153    
    471000   299.26553     -5.256057       0              57.371891      2028.2452    
    472000   307.5662      -5.537665       0              58.827382      2132.2858    
    473000   300.31563     -4.7400292      0              58.107676      2081.8158    
    474000   301.44397     -3.2430307      0              59.840804      2140.2832    
    475000   307.11747     -3.2818044      0              60.989336      2172.4632    
    476000   295.16501     -5.5675168      0              56.202306      1971.1257    
    477000   303.24196     -3.1289095      0              60.331195      2028.8357    
    478000   303.86397     -6.8184145      0              56.771858      2026.963     
    479000   298.78393     -6.1168106      0              56.410352      2086.2293    
    480000   298.42832     -4.6871085      0              57.765636      2101.8209    
    481000   309.65707     -5.7041687      0              59.098441      2175.0911    
    482000   295.27128     -4.2717143      0              57.520348      2070.687     
    483000   297.28006     -6.0459265      0              56.166518      2072.8764    
    484000   303.58526     -4.0578649      0              59.474083      2119.3256    
    485000   295.38656     -3.5341244      0              58.282064      2099.1452    
    486000   301.82503     -4.230493       0              58.933087      2089.9014    
    487000   298.68104     -3.523815       0              58.981816      2173.5153    
    488000   302.00446     -5.2133394      0              57.987791      2034.6703    
    489000   306.28608     -5.7223979      0              58.374756      1982.5384    
    490000   299.11497     -3.6199512      0              58.976489      2188.1484    
    491000   305.77182     -4.7929074      0              59.196627      2095.2435    
    492000   308.99595     -2.659718       0              62.004537      2106.3996    
    493000   301.12415     -3.6502692      0              59.366638      2114.5518    
    494000   294.18656     -3.9318112      0              57.633251      2104.3978    
    495000   310.8653      -4.5358761      0              60.519581      2135.414     
    496000   303.36071     -5.3412819      0              58.143674      2119.3063    
    497000   304.65465     -3.808804       0              59.946936      2163.9231    
    498000   295.14322     -5.6413228      0              56.12394       2057.8787    
    499000   298.69067     -5.7980132      0              56.709632      1992.1262    
    500000   303.63822     -5.4360443      0              58.106987      2011.5633    
    501000   305.24915     -5.0571877      0              58.822965      1923.3244    
    502000   305.56426     -4.6368807      0              59.309216      2122.9872    
    503000   299.44238     -5.9879818      0              56.676977      2158.8808    
    504000   302.36326     -4.2294235      0              59.046794      2177.8277    
    505000   298.98941     -4.655943       0              57.914221      2164.7791    
    506000   301.56603     -3.3058454      0              59.803533      2221.0334    
    507000   299.5753      -6.34132        0              56.351455      2076.8105    
    508000   296.56178     -5.1402596      0              56.921868      2044.402     
    509000   306.87019     -3.4631958      0              60.756196      2182.3433    
    510000   294.50342     -4.8545456      0              56.776826      2126.3662    
    511000   305.06781     -4.6644005      0              59.177803      2126.7495    
    512000   292.11295     -4.4158538      0              56.715259      2058.334     
    513000   309.2515      -4.0177583      0              60.699977      2129.3265    
    514000   303.80687     -4.3499547      0              59.228369      2098.7096    
    515000   297.97062     -5.2168201      0              57.14014       2099.4986    
    516000   292.15967     -4.4980735      0              56.642816      1945.0678    
    517000   298.12334     -6.4248039      0              55.964116      1963.4175    
    518000   291.48562     -5.1047073      0              55.895122      1979.283     
    519000   291.41383     -3.5500684      0              57.434738      2159.3687    
    520000   303.11683     -4.416476       0              59.017443      2051.7758    
    521000   307.2978      -5.0133156      0              59.295563      2031.3907    
    522000   309.9581      -5.1567217      0              59.708884      2116.623     
    523000   292.09036     -5.8882804      0              55.238104      1960.6322    
    524000   302.61513     -4.4859215      0              58.843005      2032.0139    
    525000   293.70043     -5.4514921      0              56.011837      2002.0825    
    526000   285.03931     -4.4229863      0              55.227809      2080.9492    
    527000   291.44735     -5.4554563      0              55.536364      2074.9302    
    528000   290.10095     -3.9621655      0              56.747891      2104.9685    
    529000   296.58198     -5.8928392      0              56.173518      2046.1217    
    530000   299.11048     -5.5030011      0              57.0925        2135.5556    
    531000   308.61288     -3.9743928      0              60.609695      2163.4678    
    532000   302.38204     -6.2531046      0              57.027042      2030.1465    
    533000   297.19133     -3.9173957      0              58.276481      2089.5051    
    534000   299.52204     -4.1148061      0              58.566823      2111.6351    
    535000   293.69267     -6.6846606      0              54.777043      1996.9741    
    536000   302.62255     -5.2548755      0              58.075603      2139.9186    
    537000   301.62822     -5.325341       0              57.797053      2090.2361    
    538000   306.32477     -4.0773219      0              60.027929      2091.183     
    539000   306.97958     -3.639201       0              60.603083      2176.4693    
    540000   301.93        -6.563724       0              56.621823      2060.3685    
    541000   306.08171     -2.4737872      0              61.580598      2101.5084    
    542000   297.05714     -5.2668392      0              56.898954      2127.4513    
    543000   302.58057     -4.2072004      0              59.114494      2100.8599    
    544000   299.72836     -4.29707        0              58.427735      2009.1645    
    545000   289.64345     -4.5195032      0              56.094811      2207.9607    
    546000   308.51757     -6.2223604      0              58.341782      2047.494     
    547000   301.46172     -4.5236162      0              58.563933      2106.0452    
    548000   299.63607     -5.3871657      0              57.318327      2087.6852    
    549000   296.16401     -5.1466291      0              56.832258      1996.3738    
    550000   295.10997     -5.0074507      0              56.750855      2014.651     
    551000   295.98508     -6.0142935      0              55.927149      2120.0021    
    552000   301.52214     -3.7195375      0              59.380656      2123.8025    
    553000   295.0662      -4.8698061      0              56.87934       2019.3408    
    554000   293.98731     -4.4555086      0              57.067855      2065.027     
    555000   300.42297     -4.4932985      0              58.37687       2023.6268    
    556000   299.38016     -4.7908446      0              57.861093      2123.2378    
    557000   295.80221     -4.4892067      0              57.413965      2093.0446    
    558000   302.08329     -4.6422532      0              58.575375      2132.1602    
    559000   304.72424     -3.4731682      0              60.297137      2152.7516    
    560000   306.78509     -5.3389861      0              58.862596      2147.2949    
    561000   294.34014     -5.9285915      0              55.668609      1974.6733    
    562000   289.56387     -4.7384215      0              55.859238      2047.7501    
    563000   302.22735     -4.5140274      0              58.733746      2147.5144    
    564000   307.40883     -3.5702044      0              60.76191       2145.6687    
    565000   294.29693     -5.738259       0              55.8499        2076.1347    
    566000   301.42716     -7.1994923      0              55.880824      1918.0337    
    567000   301.96998     -5.5916387      0              57.602276      2084.1685    
    568000   295.83585     -5.4303146      0              56.479897      2039.3084    
    569000   305.09212     -4.8665805      0              58.980711      2046.4969    
    570000   301.46242     -4.5792686      0              58.508427      2071.2114    
    571000   292.34191     -4.9785341      0              56.200492      2083.4157    
    572000   298.45602     -4.6009336      0              57.857606      2118.4017    
    573000   299.21784     -4.3672164      0              58.250753      2061.9923    
    574000   307.44507     -4.4088215      0              59.930877      1998.2651    
    575000   301.2653      -5.5456569      0              57.500787      2015.1833    
    576000   290.15579     -3.6063397      0              57.115194      2203.1983    
    577000   301.42235     -5.4007137      0              57.678598      1963.4357    
    578000   299.60089     -4.9837689      0              57.714362      2105.7707    
    579000   292.54256     -6.1894359      0              55.031581      1976.8797    
    580000   301.97636     -4.6224833      0              58.572767      2072.5956    
    581000   299.25835     -5.9051595      0              56.721287      2072.8048    
    582000   300.29676     -3.7294183      0              59.114338      2078.4631    
    583000   304.89929     -5.7996708      0              58.007267      2139.686     
    584000   292.78077     -5.5841668      0              55.686702      2086.6576    
    585000   299.1331      -7.2796914      0              55.320542      1844.8417    
    586000   302.04757     -5.3351171      0              57.875035      2029.8695    
    587000   299.06959     -4.8204327      0              57.76651       2020.0286    
    588000   301.63422     -5.6627526      0              57.460897      2057.5225    
    589000   297.86307     -3.1441014      0              59.190351      2099.1372    
    590000   303.9562      -3.650951       0              59.958624      2201.8791    
    591000   288.67533     -3.9363531      0              56.475362      2080.3887    
    592000   301.58618     -4.6330708      0              58.480525      2157.8148    
    593000   301.82922     -3.1643586      0              60.0001        2079.2338    
    594000   295.66904     -3.623107       0              58.252197      2099.8896    
    595000   296.13441     -5.9085876      0              56.064105      2002.1421    
    596000   299.07778     -5.522712       0              57.065945      2094.8646    
    597000   300.64643     -4.5024544      0              58.414478      2068.1999    
    598000   286.59093     -4.2180944      0              55.757412      1994.8143    
    599000   306.15802     -3.8690524      0              60.201302      2096.5544    
    600000   295.363       -6.7550843      0              55.056174      2029.2635    
    601000   305.02285     -6.3309998      0              57.501796      2072.6681    
    602000   291.68526     -4.3231534      0              56.718456      2077.2477    
    603000   305.39099     -5.2853711      0              58.624464      2118.8899    
    604000   292.26971     -3.9390396      0              57.224879      2006.0683    
    605000   306.05371     -2.6172261      0              61.431299      2156.7905    
    606000   299.36127     -5.6278959      0              57.020087      2158.8325    
    607000   300.7389      -4.6689548      0              58.26733       2188.1454    
    608000   299.82231     -4.7296748      0              58.014792      2027.9458    
    609000   297.52888     -3.7881862      0              58.47633       2074.455     
    610000   307.10796     -4.3570082      0              59.912143      2174.5499    
    611000   303.76301     -5.2633984      0              58.305747      2031.2239    
    612000   297.99154     -3.036453       0              59.324884      2072.3114    
    613000   298.20571     -3.8900171      0              58.516139      2095.2116    
    614000   307.38773     -4.3207638      0              60.006934      2068.3096    
    615000   285.49611     -2.5427574      0              57.203634      2114.9421    
    616000   300.79473     -3.5666297      0              59.381338      2111.52      
    617000   302.27231     -4.8663394      0              58.390844      2054.3872    
    618000   290.92281     -5.2053577      0              55.676692      2006.6596    
    619000   298.11559     -2.9401006      0              59.447197      2206.5321    
    620000   298.4274      -5.1044724      0              57.348078      2063.718     
    621000   303.92983     -5.3560883      0              58.247968      2098.685     
    622000   301.23542     -5.3949985      0              57.645192      2072.9685    
    623000   300.59449     -5.454863       0              57.4512        2013.1746    
    624000   301.69432     -4.8546717      0              58.281555      2094.3614    
    625000   290.33062     -5.0970858      0              55.661036      2111.7883    
    626000   283.05273     -3.6498492      0              55.585212      2001.9343    
    627000   305.513       -3.9783039      0              59.957067      2096.8323    
    628000   299.18581     -3.1469736      0              59.464291      2235.8679    
    629000   291.84789     -6.3277164      0              54.747926      2089.455     
    630000   297.50591     -3.6837154      0              58.575993      2169.606     
    631000   303.12707     -4.7380284      0              58.698034      2122.304     
    632000   295.16594     -6.7579478      0              55.01207       2018.7517    
    633000   300.30361     -5.6261693      0              57.219021      2005.5417    
    634000   293.47904     -4.300448       0              57.116549      2087.4545    
    635000   302.66191     -4.6077425      0              58.730973      2010.7334    
    636000   303.22726     -4.4727307      0              58.984297      2095.8586    
    637000   300.1719      -4.861355       0              57.956272      2015.2327    
    638000   297.77316     -5.3955879      0              56.920049      1983.8762    
    639000   300.21287     -3.0485601      0              59.777641      2118.6384    
    640000   307.08167     -4.2232108      0              60.040438      2241.4908    
    641000   302.2868      -3.4052988      0              59.854918      2191.4034    
    642000   298.7536      -4.3452902      0              58.175526      2044.3672    
    643000   305.95472     -4.8571913      0              59.170619      2066.0157    
    644000   297.87961     -5.8910064      0              56.446906      2040.4359    
    645000   301.03696     -4.5821061      0              58.416552      2091.3893    
    646000   297.39564     -4.3508813      0              57.88575       2053.9803    
    647000   296.67583     -3.4168479      0              58.669149      2053.7811    
    648000   297.56569     -2.607291       0              59.664928      2167.55      
    649000   309.77551     -3.8241223      0              61.003273      2074.4       
    650000   297.78597     -4.9031227      0              57.415195      2125.8536    
    651000   298.05174     -5.3251081      0              57.048828      2063.7163    
    652000   299.35332     -3.0306595      0              59.61566       2101.0363    
    653000   303.78665     -3.803312       0              59.770781      2134.347     
    654000   294.1624      -4.3232539      0              57.236751      2055.6914    
    655000   300.47657     -5.7447778      0              57.136607      2061.2401    
    656000   297.35419     -4.1101995      0              58.117758      2118.4042    
    657000   312.22738     -5.2708959      0              60.069608      2125.2072    
    658000   303.50112     -4.9413596      0              58.572979      2047.8359    
    659000   293.87293     -5.4546403      0              56.044787      1989.7215    
    660000   294.02123     -4.4825034      0              57.047959      2124.7544    
    661000   296.57916     -4.2781602      0              57.787605      2003.6217    
    662000   291.40336     -3.9256291      0              57.056985      2066.7278    
    663000   294.05797     -3.2968476      0              58.241303      2149.6868    
    664000   293.58124     -4.0226524      0              57.415731      2125.529     
    665000   300.65887     -3.4692152      0              59.450321      2187.1871    
    666000   304.29985     -4.1673144      0              59.514178      2047.7469    
    667000   301.63987     -5.531613       0              57.593218      2028.5451    
    668000   293.4839      -5.7667205      0              55.651294      2022.5185    
    669000   301.50793     -4.6107056      0              58.486514      2075.8601    
    670000   303.00174     -5.0300349      0              58.379798      2122.7028    
    671000   304.25762     -4.7397366      0              58.932917      2082.5266    
    672000   302.03562     -5.2544852      0              57.953165      2045.301     
    673000   297.98215     -4.8053797      0              57.553994      2072.4624    
    674000   306.5253      -3.9032601      0              60.243956      2151.6931    
    675000   297.4597      -3.9922927      0              58.257745      2164.8798    
    676000   306.3775      -4.9395167      0              59.176768      2048.7969    
    677000   295.54257     -5.4490463      0              56.39979       2070.2273    
    678000   307.15373     -4.0875378      0              60.191192      2119.8295    
    679000   299.23131     -3.8654457      0              58.755341      2147.7964    
    680000   308.13541     -5.1705897      0              59.313577      2133.3057    
    681000   291.28637     -3.0697407      0              57.888391      2018.6622    
    682000   300.16563     -4.3727176      0              58.443596      2110.6522    
    683000   285.85124     -4.5862033      0              55.234507      2043.3433    
    684000   300.68563     -3.6712543      0              59.253882      2149.9688    
    685000   305.01839     -4.8715569      0              58.960305      2167.1519    
    686000   300.69741     -6.2607781      0              56.666823      2034.0699    
    687000   297.7216      -3.0884656      0              59.216381      2158.3462    
    688000   302.3334      -3.6124613      0              59.657507      2049.495     
    689000   286.18374     -5.3404639      0              54.54983       1985.6602    
    690000   306.50583     -5.249353       0              58.893788      2088.6043    
    691000   298.47682     -5.5051449      0              56.957749      2047.7997    
    692000   290.1948      -4.197179       0              56.532517      2147.691     
    693000   296.44815     -5.8564325      0              56.181917      1985.6979    
    694000   300.8348      -3.3699302      0              59.586424      2123.9479    
    695000   301.04274     -4.0177044      0              58.982165      2114.2455    
    696000   294.92951     -2.405616       0              59.314925      2175.2579    
    697000   305.96262     -3.9513132      0              60.078149      2050.9717    
    698000   300.47785     -3.888816       0              58.992838      2083.3961    
    699000   294.62906     -4.4113732      0              57.246292      2153.8552    
    700000   293.61123     -4.8369059      0              56.607756      1989.2931    
    701000   297.52144     -5.7824828      0              56.480476      2077.8707    
    702000   295.84151     -6.1802083      0              55.731189      2100.8136    
    703000   300.3181      -4.0886255      0              58.759597      2111.1673    
    704000   299.2856      -4.6513736      0              57.980774      2097.682     
    705000   300.59753     -4.2647507      0              58.641949      2096.4082    
    706000   295.34684     -4.545663       0              57.262212      2054.6084    
    707000   306.44714     -5.4554321      0              58.675427      1961.2387    
    708000   302.62471     -5.5290839      0              57.801848      2149.8888    
    709000   306.13461     -5.8853213      0              58.180135      1999.7767    
    710000   290.81459     -6.2814592      0              54.577943      1966.4571    
    711000   297.38846     -4.5015302      0              57.7336        1998.0118    
    712000   309.54095     -5.7502656      0              59.028041      2054.8989    
    713000   301.73621     -4.2129711      0              58.932022      2118.8828    
    714000   302.29423     -2.8308014      0              60.43097       2178.2749    
    715000   302.73802     -3.0158474      0              60.338797      2197.6692    
    716000   293.27449     -6.5411205      0              54.83307       1983.3956    
    717000   304.3193      -3.900081       0              59.785481      2108.1648    
    718000   300.85624     -3.7951287      0              59.16571       2146.181     
    719000   308.69115     -3.8009669      0              60.799501      2112.1676    
    720000   296.1068      -4.3782671      0              57.588648      2116.5144    
    721000   302.27789     -3.5082827      0              59.750069      2149.6047    
    722000   300.44361     -3.0196006      0              59.854888      2092.4665    
    723000   301.38381     -4.7044516      0              58.366794      1996.6422    
    724000   288.6634      -4.7732467      0              55.635971      1991.7292    
    725000   290.48248     -3.3908141      0              57.399086      2133.3919    
    726000   295.96563     -3.5215722      0              58.415799      2083.4408    
    727000   306.13101     -4.9823786      0              59.082325      2039.8798    
    728000   301.94402     -5.2690942      0              57.919387      2121.7092    
    729000   297.8465      -5.1227489      0              57.208235      2003.407     
    730000   295.51478     -4.7040916      0              57.138928      2100.9334    
    731000   298.85108     -4.4467184      0              58.094498      2148.8116    
    732000   299.95495     -5.3645315      0              57.407693      2023.2388    
    733000   295.80502     -2.4848718      0              59.418889      2119.5689    
    734000   298.58381     -5.4280727      0              57.057211      2087.6941    
    735000   310.29475     -6.3145396      0              58.621518      2125.1371    
    736000   309.35426     -5.4513886      0              59.287851      2050.799     
    737000   293.64713     -4.6929863      0              56.759188      2047.631     
    738000   313.22545     -3.8269488      0              61.722422      2108.2917    
    739000   296.44365     -5.1379608      0              56.899447      2069.8612    
    740000   296.71864     -5.3879427      0              56.707013      2050.1529    
    741000   291.35462     -4.2392646      0              56.733151      2152.4628    
    742000   286.66957     -3.9114517      0              56.080513      2105.8539    
    743000   298.54733     -4.7929768      0              57.684673      1985.4929    
    744000   298.91256     -4.3476227      0              58.206459      2039.6962    
    745000   305.25363     -4.2255274      0              59.655563      2053.6195    
    746000   312.15632     -4.4066189      0              60.919012      1997.307     
    747000   295.44365     -5.0713085      0              56.756827      2202.7238    
    748000   294.48907     -4.8856751      0              56.742693      2037.0461    
    749000   292.78853     -6.2309472      0              55.041546      2131.9854    
    750000   299.11959     -3.7064427      0              58.890964      2155.2202    
    751000   290.49972     -2.5110351      0              58.282473      2210.463     
    752000   297.47356     -5.0187595      0              57.23418       2096.8908    
    753000   306.50001     -4.7385989      0              59.403324      2159.4809    
    754000   296.16596     -4.3230101      0              57.656285      2137.9991    
    755000   308.11005     -4.1264164      0              60.352444      2099.8023    
    756000   297.09884     -4.9589827      0              57.215538      2071.348     
    757000   300.33665     -5.4485922      0              57.403512      2083.478     
    758000   302.15451     -5.3784376      0              57.854094      2049.7798    
    759000   299.72463     -4.4451289      0              58.278896      2134.5091    
    760000   296.15417     -4.7489304      0              57.227896      2073.6443    
    761000   304.05168     -3.5813638      0              60.048193      2291.3668    
    762000   300.83371     -3.489183       0              59.466941      2229.5302    
    763000   301.90227     -5.8287006      0              57.351044      1926.1889    
    764000   299.96872     -5.4040532      0              57.371054      2126.4903    
    765000   306.71289     -5.1295941      0              59.05688       2076.6048    
    766000   305.0448      -4.849535       0              58.987854      2151.3378    
    767000   294.27678     -4.4912634      0              57.092678      2084.3537    
    768000   293.83769     -2.9602497      0              58.531803      2059.7863    
    769000   301.92654     -4.481671       0              58.703153      2110.5777    
    770000   300.33738     -3.1240106      0              59.728246      2146.7159    
    771000   311.89698     -4.3321772      0              60.939181      2169.4569    
    772000   290.71543     -3.7573659      0              57.081284      2093.0518    
    773000   307.54674     -4.2842724      0              60.076702      2213.1847    
    774000   288.78985     -6.7008143      0              53.734866      1981.325     
    775000   304.27362     -4.7425687      0              58.933434      2112.6562    
    776000   297.00804     -5.6010419      0              56.554476      2024.4049    
    777000   308.82553     -3.072347       0              61.556243      2261.4636    
    778000   299.77241     -5.0306753      0              57.703349      2065.6533    
    779000   314.1592      -4.0947527      0              61.650027      2081.7106    
    780000   299.77791     -4.4654717      0              58.269703      2077.5548    
    781000   305.01938     -3.8816783      0              59.95039       2073.7292    
    782000   296.29953     -3.1366879      0              58.87056       2113.3817    
    783000   297.25385     -4.9077373      0              57.299222      2062.2924    
    784000   301.83877     -4.1168119      0              59.049644      2039.9246    
    785000   297.4284      -4.3564287      0              57.88706       2090.1516    
    786000   287.49611     -3.0574309      0              57.107505      2167.3517    
    787000   303.90336     -4.4555093      0              59.143009      2091.0036    
    788000   302.75985     -5.0405774      0              58.318634      2100.0374    
    789000   303.77895     -4.8159046      0              58.756576      2055.8617    
    790000   307.60567     -5.6290535      0              58.744254      2102.4639    
    791000   286.12427     -4.6595552      0              55.218294      2028.8039    
    792000   306.33879     -5.5371782      0              58.571006      2039.5533    
    793000   293.29534     -3.9702123      0              57.408341      2143.8762    
    794000   300.15619     -4.9551638      0              57.859175      2091.9716    
    795000   298.58511     -6.2327352      0              56.252819      2020.9835    
    796000   291.15101     -6.5320478      0              54.397758      1991.9435    
    797000   304.70335     -5.092006       0              58.673927      2067.6838    
    798000   300.04977     -5.5260672      0              57.266002      2027.5653    
    799000   300.75722     -2.8791235      0              60.060993      2151.2727    
    800000   299.64337     -4.4224704      0              58.284549      2121.5836    
    801000   311.26207     -6.0319063      0              59.106583      2086.5103    
    802000   296.80945     -4.5880986      0              57.52586       2154.6571    
    803000   301.48105     -5.2516857      0              57.839909      2124.4422    
    804000   306.40043     -5.1879566      0              58.933128      2148.4579    
    805000   297.56191     -4.2526784      0              58.018751      2062.2689    
    806000   292.31281     -4.1599059      0              57.013031      2067.187     
    807000   294.73707     -1.8565975      0              59.82367       2244.5348    
    808000   305.59012     -2.1144268      0              61.837082      2069.1361    
    809000   304.73917     -3.584566       0              60.188864      2092.7244    
    810000   305.82713     -3.5039912      0              60.497117      2096.0782    
    811000   295.12329     -3.029993       0              58.731099      2194.2328    
    812000   310.92167     -4.8133139      0              60.253941      2074.5581    
    813000   295.20788     -5.2060895      0              56.572706      2020.6243    
    814000   306.35809     -4.4362556      0              59.675968      2043.4965    
    815000   308.30017     -3.0090521      0              61.509596      2046.5663    
    816000   315.45579     -4.2996661      0              61.716453      2223.9682    
    817000   298.22601     -3.8593816      0              58.551024      2079.5879    
    818000   304.08071     -6.4811432      0              57.154488      2047.6681    
    819000   295.98854     -5.3898753      0              56.55229       2070.388     
    820000   306.82209     -5.0212997      0              59.188026      2100.7555    
    821000   303.63813     -4.3265371      0              59.216474      2013.9754    
    822000   293.09985     -4.9033735      0              56.43427       2119.9539    
    823000   299.16965     -4.0660966      0              58.541787      2146.1534    
    824000   306.33571     -3.938647       0              60.168894      2122.7037    
    825000   296.08634     -2.9170883      0              59.045543      2153.1419    
    826000   299.54898     -6.4304616      0              56.256804      2032.5073    
    827000   294.13708     -5.0991844      0              56.455522      2028.4434    
    828000   303.52595     -3.7145332      0              59.805002      2097.7356    
    829000   300.86875     -3.50426        0              59.459198      2038.1273    
    830000   291.83801     -4.5133974      0              56.560177      2022.4662    
    831000   298.81477     -4.4211029      0              58.112514      2058.722     
    832000   295.66194     -3.7563365      0              58.117481      2188.4761    
    833000   301.33449     -3.8501216      0              59.210803      2079.4307    
    834000   313.65959     -3.1097867      0              62.530438      2162.7635    
    835000   297.31155     -4.6903772      0              57.528658      2055.485     
    836000   293.86725     -4.1755988      0              57.32264       2081.466     
    837000   293.99145     -5.3447104      0              56.179519      2128.2422    
    838000   298.41332     -5.2689551      0              57.180648      2122.6852    
    839000   306.88237     -5.6193702      0              58.60257       2045.032     
    840000   292.9544      -4.2597506      0              57.047455      1987.1257    
    841000   290.93241     -5.3452485      0              55.53881       2088.373     
    842000   299.34637     -5.0107253      0              57.634141      2021.4707    
    843000   300.56927     -3.5373968      0              59.363388      2157.0284    
    844000   298.04178     -4.2291779      0              58.142673      2058.5004    
    845000   295.85911     -3.6359345      0              58.279145      2163.3614    
    846000   306.76157     -4.7056591      0              59.491002      2207.3554    
    847000   299.71557     -4.7967334      0              57.925396      2142.6475    
    848000   303.67233     -5.8188977      0              57.73127       2048.6331    
    849000   314.82644     -4.4434934      0              61.44092       2143.9632    
    850000   297.67181     -4.2805226      0              58.013904      2190.697     
    851000   299.99833     -5.7907318      0              56.99057       2016.0046    
    852000   307.22641     -6.143704       0              58.150235      2113.619     
    853000   286.37963     -4.6042705      0              55.327017      2054.96      
    854000   288.4028      -4.1221707      0              56.23251       2133.9245    
    855000   305.11341     -3.4031557      0              60.448591      2068.9843    
    856000   290.82734     -4.13746        0              56.72461       2150.8051    
    857000   300.37658     -6.2080322      0              56.652427      2024.8516    
    858000   290.26847     -4.8777936      0              55.867321      2014.9645    
    859000   301.87252     -3.6418396      0              59.531679      2134.6538    
    860000   297.52843     -6.7010445      0              55.563377      2000.7441    
    861000   302.51932     -3.245285       0              60.063591      2162.0795    
    862000   299.70009     -4.7592791      0              57.95961       2077.7219    
    863000   308.04291     -5.1443867      0              59.320424      2128.8678    
    864000   316.5164      -5.9352164      0              60.302858      2020.0968    
    865000   292.45366     -5.2944506      0              55.907962      2155.7139    
    866000   307.59438     -4.9623032      0              59.408641      2112.1553    
    867000   303.98075     -3.3540558      0              60.260656      2205.9819    
    868000   283.30246     -4.3963444      0              54.890977      2144.7432    
    869000   304.61656     -3.6397161      0              60.108053      2147.7269    
    870000   295.40124     -4.3344768      0              57.484783      2138.6303    
    871000   300.95915     -4.5658202      0              58.416556      2051.3063    
    872000   296.87576     -3.2248959      0              58.902941      2119.7703    
    873000   300.52318     -3.0708979      0              59.820241      2092.8698    
    874000   289.13261     -5.1956692      0              55.31174       2005.7544    
    875000   298.31346     -4.6798619      0              57.748846      2030.6546    
    876000   308.1608      -2.9440096      0              61.545471      2075.1896    
    877000   303.09134     -4.2084475      0              59.220136      2151.5042    
    878000   293.74827     -3.1998368      0              58.273502      2091.5383    
    879000   308.12181     -4.3376373      0              60.143683      2119.6257    
    880000   296.09926     -5.8138105      0              56.151526      2008.3461    
    881000   294.85879     -5.9569158      0              55.748825      2069.4907    
    882000   301.60571     -2.9939765      0              60.123707      2202.7218    
    883000   309.61069     -4.592639       0              60.200264      2140.6153    
    884000   298.89359     -3.9184145      0              58.631696      2122.8524    
    885000   303.95757     -4.5917021      0              59.01816       2165.0464    
    886000   302.64447     -4.0983833      0              59.236684      2194.9481    
    887000   302.39554     -4.7822629      0              58.500708      2095.0376    
    888000   303.37753     -6.2524695      0              57.236005      2106.5249    
    889000   296.51149     -4.6750293      0              57.376575      2102.7659    
    890000   298.41205     -6.2272115      0              56.222128      2103.6307    
    891000   292.05257     -4.5259501      0              56.592527      2013.9794    
    892000   295.12386     -3.7072593      0              58.053953      2042.6248    
    893000   292.59316     -3.5353066      0              57.6963        2062.6723    
    894000   307.13033     -5.7974812      0              58.47635       2063.0879    
    895000   294.25031     -2.7854695      0              58.792932      2166.217     
    896000   296.86416     -2.1275702      0              59.997839      2241.8117    
    897000   301.14982     -4.867879       0              58.154399      2137.5672    
    898000   298.60122     -5.0946645      0              57.394262      2077.1753    
    899000   302.258       -2.9342004      0              60.319989      2167.2484    
    900000   297.06336     -3.8578282      0              58.309267      2125.6037    
    901000   293.91216     -4.322326       0              57.185311      2147.6623    
    902000   303.33266     -3.339681       0              60.139405      1999.2095    
    903000   300.25657     -3.8853143      0              58.95003       2154.4307    
    904000   295.88164     -7.1569278      0              54.762867      2101.797     
    905000   300.96062     -4.869943       0              58.11274       1996.0234    
    906000   303.59495     -5.8868312      0              57.647144      2080.3743    
    907000   309.48283     -3.9684907      0              60.797655      2127.9864    
    908000   310.12911     -4.4136789      0              60.487715      2120.8474    
    909000   300.17315     -3.1629443      0              59.654943      2130.7591    
    910000   297.95041     -5.4610387      0              56.891691      2036.7159    
    911000   294.06135     -3.8699136      0              57.668945      2110.0493    
    912000   293.57239     -4.0194736      0              57.417058      2129.3278    
    913000   308.36031     -4.2612072      0              60.270026      2162.7282    
    914000   309.70805     -4.858427       0              59.954851      2037.7024    
    915000   296.15578     -4.3837154      0              57.593448      1942.9518    
    916000   310.44665     -4.2819619      0              60.685884      2143.5961    
    917000   299.78841     -4.6487079      0              58.088664      2027.2654    
    918000   310.14197     -3.1284509      0              61.775633      2160.0013    
    919000   299.55347     -4.2440898      0              58.444116      2037.5657    
    920000   305.76617     -3.9389665      0              60.049385      2136.3524    
    921000   304.23096     -4.2980589      0              59.369017      2017.4464    
    922000   297.30237     -4.4275885      0              57.789526      2083.8725    
    923000   294.22568     -4.5098105      0              57.063438      2043.1417    
    924000   305.86714     -4.9412369      0              59.068245      2070.7646    
    925000   296.23086     -4.0614853      0              57.931392      2106.9196    
    926000   320.63238     -5.4307668      0              61.668669      2104.8234    
    927000   294.93823     -3.9165736      0              57.805791      2070.1122    
    928000   308.17038     -5.5143889      0              58.977097      2051.2257    
    929000   296.33494     -5.1327173      0              56.881941      1993.309     
    930000   307.57957     -5.5609045      0              58.806941      2050.0264    
    931000   297.2597      -3.9755482      0              58.232637      2068.4927    
    932000   304.0455      -5.6875078      0              57.940756      2033.6199    
    933000   291.98755     -3.4825527      0              57.622318      2304.1647    
    934000   304.23681     -4.5468504      0              59.121449      2081.3315    
    935000   288.38661     -5.3534027      0              54.997891      1984.3121    
    936000   302.65691     -4.0360907      0              59.30158       2229.6038    
    937000   308.80551     -4.7553411      0              59.869059      2192.433     
    938000   304.87315     -5.2102963      0              58.591172      2177.2507    
    939000   302.0463      -3.5292203      0              59.680665      2162.501     
    940000   286.82113     -5.0781413      0              54.945541      2109.643     
    941000   299.43221     -3.6371957      0              59.025635      2131.8115    
    942000   298.97782     -4.4755037      0              58.092235      2099.1416    
    943000   293.97584     -5.4027677      0              56.118195      2051.9367    
    944000   296.21722     -4.1955896      0              57.794431      2116.9047    
    945000   306.80727     -3.5128307      0              60.693394      2199.4685    
    946000   297.69899     -3.7130738      0              58.587042      2202.6362    
    947000   300.49511     -3.1422804      0              59.742986      2080.811     
    948000   307.32453     -4.6739892      0              59.640484      2079.8501    
    949000   294.61842     -5.3937679      0              56.26167       2082.2783    
    950000   304.7826      -5.4319059      0              58.350612      2032.8019    
    951000   295.6393      -3.5892716      0              58.279808      2071.258     
    952000   298.0541      -5.856771       0              56.51766       2105.5167    
    953000   302.1422      -5.100133       0              58.129822      2020.2858    
    954000   309.35387     -5.0329898      0              59.706167      2165.9818    
    955000   298.44705     -4.417959       0              58.038704      2088.6925    
    956000   294.19256     -6.7630184      0              54.803299      2014.5752    
    957000   307.09906     -2.6766318      0              61.590657      2175.2278    
    958000   303.68799     -2.6011541      0              60.952292      2226.0863    
    959000   309.37532     -5.2153043      0              59.528342      1983.4334    
    960000   310.52241     -5.3381212      0              59.645579      2178.7606    
    961000   300.17351     -4.2161209      0              58.601843      2190.1448    
    962000   298.67422     -4.2951685      0              58.209034      2116.6385    
    963000   293.29028     -6.3867149      0              54.990779      2029.324     
    964000   294.30832     -3.8092603      0              57.781282      2145.6023    
    965000   297.31978     -5.0980461      0              57.122711      2026.5642    
    966000   294.0474      -4.873544       0              56.662395      2116.7822    
    967000   295.44788     -6.2795227      0              55.549499      2058.1658    
    968000   312.44381     -3.8036704      0              61.582125      2165.9378    
    969000   307.722       -4.3683118      0              60.029341      2189.0642    
    970000   296.52705     -4.6226686      0              57.432192      2033.8742    
    971000   299.27424     -4.8435691      0              57.786201      2115.2551    
    972000   300.49953     -4.7762657      0              58.109925      2064.6994    
    973000   302.32049     -6.0592637      0              57.208003      2072.0704    
    974000   312.47479     -6.9678355      0              58.424444      1938.891     
    975000   300.00318     -3.7146878      0              59.06763       2140.2325    
    976000   298.96019     -4.2265985      0              58.337452      2149.9619    
    977000   305.0193      -5.3113996      0              58.520652      2142.2155    
    978000   291.36977     -2.9782363      0              57.99735       2246.6077    
    979000   298.51576     -5.4126762      0              57.058365      2015.3382    
    980000   303.5863      -5.6157167      0              57.916449      2100.162     
    981000   293.28308     -5.6672006      0              55.708788      2068.9281    
    982000   295.67298     -5.0198757      0              56.856253      2167.8094    
    983000   293.94562     -4.7654729      0              56.749167      2027.4718    
    984000   287.81445     -4.7886663      0              55.442889      2025.3577    
    985000   302.53529     -5.0215958      0              58.290622      2047.816     
    986000   293.3534      -4.7609744      0              56.62973       2176.5302    
    987000   305.53079     -3.9469962      0              59.992097      2064.644     
    988000   289.9623      -4.5806688      0              56.100372      2072.7263    
    989000   288.51304     -5.5057573      0              54.871993      2001.7632    
    990000   297.0399      -5.5604465      0              56.601739      1991.1298    
    991000   288.81879     -4.0589904      0              56.382746      2159.5208    
    992000   296.40792     -5.363939       0              56.665991      2024.0384    
    993000   301.98077     -5.609663       0              57.586509      2006.7175    
    994000   298.92781     -4.5889849      0              57.968289      2147.3701    
    995000   307.17132     -4.4170175      0              59.865393      2057.8167    
    996000   302.6835      -4.5046751      0              58.83856       2124.8794    
    997000   296.00485     -4.5033882      0              57.442191      2009.1465    
    998000   303.02369     -3.9093945      0              59.505031      2078.3806    
    999000   297.53508     -4.9126354      0              57.353178      2087.1623    
   1000000   299.11762     -4.5022719      0              58.094723      2055.1653    
   1001000   297.8867      -4.3350039      0              58.004393      2201.0966    
   1002000   288.34119     -6.0666138      0              54.275173      2026.2581    
   1003000   293.63822     -6.3604039      0              55.089905      1964.5011    
   1004000   295.67381     -3.568672       0              58.307629      2072.5257    
   1005000   305.96977     -4.4391493      0              59.591811      2008.8498    
   1006000   297.08213     -4.7467034      0              57.42432       2016.7782    
   1007000   295.52985     -4.9627088      0              56.883466      1979.2032    
   1008000   300.15459     -5.8101874      0              57.003817      1995.5385    
   1009000   300.38146     -3.5580372      0              59.303444      2225.7084    
   1010000   298.42265     -5.2951086      0              57.156448      2121.7994    
   1011000   301.00854     -4.6883093      0              58.304402      1961.0479    
   1012000   294.90468     -4.6813175      0              57.034025      1961.108     
   1013000   286.6376      -3.6572883      0              56.327985      2083.3926    
   1014000   306.19969     -5.6060656      0              58.47301       2046.8618    
   1015000   297.78875     -3.1497342      0              59.169166      2190.7534    
   1016000   304.77418     -4.8385153      0              58.942241      2014.8617    
   1017000   295.58105     -6.5024833      0              55.354406      2008.4257    
   1018000   304.40396     -3.9754679      0              59.72781       2195.4178    
   1019000   299.49203     -3.948268       0              58.72708       2119.4717    
   1020000   304.68379     -3.9565874      0              59.805251      2105.0801    
   1021000   301.21948     -3.091094       0              59.945762      2221.3907    
   1022000   297.6266      -4.7619903      0              57.522977      2072.9229    
   1023000   305.86128     -2.8446114      0              61.163643      2133.9982    
   1024000   302.1626      -5.0786037      0              58.155621      2100.6919    
   1025000   310.17914     -2.5444965      0              62.367367      2210.113     
   1026000   306.21932     -3.5679542      0              60.515229      2085.9217    
   1027000   304.84505     -3.9085474      0              59.887039      2087.386     
   1028000   305.20823     -3.9839049      0              59.887685      2194.5758    
   1029000   304.79997     -4.778          0              59.008153      2062.4581    
   1030000   304.03052     -3.5781859      0              60.046943      2181.6239    
   1031000   297.35132     -5.8848019      0              56.342556      2013.7468    
   1032000   291.06288     -5.3076014      0              55.603761      2097.3692    
   1033000   291.00816     -5.2988288      0              55.601081      2108.1683    
   1034000   295.48202     -5.0655409      0              56.770623      2021.2133    
   1035000   298.16632     -2.8683757      0              59.529539      2056.6872    
   1036000   304.4711      -4.3434755      0              59.373853      2046.7952    
   1037000   301.19801     -5.4598927      0              57.572471      2009.7018    
   1038000   292.3333      -6.1803924      0              54.996834      2101.762     
   1039000   300.85095     -5.4928825      0              57.46685       2059.4359    
   1040000   298.9781      -5.49352        0              57.074277      2103.3814    
   1041000   304.13702     -5.7561303      0              57.891285      2035.8455    
   1042000   302.09914     -3.9072272      0              59.313716      2138.4477    
   1043000   299.52231     -4.1933759      0              58.48831       2057.425     
   1044000   297.78032     -4.5201357      0              57.796999      2072.36      
   1045000   303.23336     -2.0284033      0              61.429901      2251.1095    
   1046000   299.37537     -6.1619387      0              56.488997      2099.8362    
   1047000   290.68414     -4.6292117      0              56.202889      1959.3206    
   1048000   297.49984     -4.353146       0              57.905292      1997.2057    
   1049000   287.39845     -4.162033       0              55.982465      2011.3367    
   1050000   310.16614     -5.3088535      0              59.600288      1992.8451    
   1051000   304.39654     -3.6183526      0              60.083374      2092.5269    
   1052000   302.51446     -4.2526652      0              59.055194      2060.9088    
   1053000   293.55383     -5.1495042      0              56.283143      1927.7898    
   1054000   289.66733     -3.9053648      0              56.713946      2073.0167    
   1055000   304.31917     -2.5425527      0              61.142982      2306.0978    
   1056000   288.12161     -3.2955105      0              57.000326      2236.4588    
   1057000   298.5534      -3.9833949      0              58.495525      2145.2434    
   1058000   300.30003     -4.0774103      0              58.767029      2127.8878    
   1059000   298.9564      -3.6534984      0              58.909758      2086.3653    
   1060000   301.10794     -3.8584227      0              59.15509       2150.1185    
   1061000   297.61536     -4.9375861      0              57.345026      2168.7121    
   1062000   293.13586     -5.9344303      0              55.410749      2005.5736    
   1063000   310.53832     -4.9568406      0              60.030189      2125.0638    
   1064000   288.4556      -5.2398706      0              55.125859      2185.8291    
   1065000   311.67165     -3.285979       0              61.938226      2181.0704    
   1066000   306.17135     -3.9135917      0              60.159552      2125.9052    
   1067000   300.22454     -4.6765676      0              58.152074      2126.2826    
   1068000   305.97788     -4.6435581      0              59.389098      2184.4425    
   1069000   291.62177     -4.4600389      0              56.568283      2062.5979    
   1070000   308.58122     -5.8805994      0              58.696863      2026.4038    
   1071000   293.59084     -4.0887636      0              57.35163       1977.1132    
   1072000   301.32858     -5.8148754      0              57.244812      1948.679     
   1073000   302.55748     -5.6660513      0              57.650811      2042.638     
   1074000   296.76084     -4.8198037      0              57.283983      2098.23      
   1075000   311.86728     -5.1459903      0              60.119153      2093.4977    
   1076000   297.69244     -5.8403373      0              56.458408      2009.6155    
   1077000   302.58064     -6.3151034      0              57.006605      2031.0322    
   1078000   301.23947     -3.9016157      0              59.139423      2113.3401    
   1079000   304.12504     -4.9310289      0              58.71388       2122.7945    
   1080000   304.60727     -2.3391987      0              61.406626      2146.2685    
   1081000   309.09019     -3.0795614      0              61.604414      2103.471     
   1082000   302.34582     -4.4956394      0              58.776929      2104.7828    
   1083000   299.52236     -5.3209033      0              57.360793      2132.9659    
   1084000   296.60645     -4.5339314      0              57.537545      2129.0808    
   1085000   309.14657     -3.6465475      0              61.049228      2124.9205    
   1086000   299.80432     -3.63692        0              59.103782      2115.1553    
   1087000   300.36367     -4.0810243      0              58.776735      2080.5042    
   1088000   293.11129     -5.5866959      0              55.753341      2114.2708    
   1089000   293.11798     -4.6706781      0              56.670759      2007.4522    
   1090000   297.71002     -4.0564195      0              58.246003      2098.3723    
   1091000   301.04634     -2.989275       0              60.011347      2193.5882    
   1092000   297.58215     -4.4309027      0              57.844761      2189.7409    
   1093000   293.93546     -2.4832989      0              59.029215      2219.7673    
   1094000   301.20556     -5.0179181      0              58.016025      2132.87      
   1095000   300.06546     -5.2135836      0              57.581767      2073.2101    
   1096000   304.14247     -4.8917009      0              58.756856      2035.1429    
   1097000   307.29047     -4.7742292      0              59.533115      2098.9243    
   1098000   306.67181     -3.9987783      0              60.179099      2164.3958    
   1099000   300.93878     -5.6952424      0              57.282871      2040.5966    
   1100000   296.70187     -5.5231779      0              56.568267      2018.9893    
   1101000   288.61672     -5.2916394      0              55.107809      2131.8387    
   1102000   298.8212      -4.2353909      0              58.299571      2092.3871    
   1103000   299.23938     -4.0673347      0              58.555141      2135.8546    
   1104000   304.94957     -5.9460973      0              57.871363      2169.6306    
   1105000   297.0606      -5.4470399      0              56.719478      2075.9188    
   1106000   290.03033     -4.2697333      0              56.425545      2017.1626    
   1107000   300.85711     -4.1811358      0              58.779886      2121.0983    
   1108000   294.8721      -3.9359417      0              57.772585      2151.1329    
   1109000   300.1798      -4.9108159      0              57.908465      2116.36      
   1110000   288.42296     -4.2410644      0              56.117836      2094.6699    
   1111000   298.38809     -6.3432001      0              56.101123      2099.721     
   1112000   312.47674     -5.3109603      0              60.081727      1994.567     
   1113000   308.56174     -5.8107717      0              58.762615      2104.7       
   1114000   313.44131     -4.1961154      0              61.398429      2145.3284    
   1115000   302.30459     -4.5206181      0              58.74332       2016.126     
   1116000   301.55362     -3.8256301      0              59.281152      2105.4579    
   1117000   304.01522     -4.9991147      0              58.622812      1992.8857    
   1118000   294.58485     -3.2963266      0              58.352085      2119.2069    
   1119000   303.02429     -4.3806592      0              59.033893      2162.1624    
   1120000   291.23738     -2.9484659      0              57.999413      2089.4164    
   1121000   298.25367     -3.4451642      0              58.971031      2142.5087    
   1122000   295.07167     -3.139004       0              58.611286      2094.0035    
   1123000   314.55325     -6.3983359      0              59.428906      2026.4627    
   1124000   302.19132     -3.7459992      0              59.494235      2040.1264    
   1125000   297.48096     -4.3603005      0              57.894186      2071.2377    
   1126000   300.42646     -4.9798096      0              57.891088      2211.6297    
   1127000   296.5938      -6.8592862      0              55.209543      1999.1184    
   1128000   301.70672     -6.1146548      0              57.024166      2006.2942    
   1129000   302.60091     -3.7236969      0              59.602253      2116.7045    
   1130000   302.43782     -5.0495732      0              58.242247      2137.7913    
   1131000   297.55257     -3.7706968      0              58.498776      2210.6457    
   1132000   297.37844     -4.4885272      0              57.744506      2154.1356    
   1133000   302.66549     -4.7173378      0              58.622127      2195.6668    
   1134000   297.59332     -5.653063       0              56.624939      2039.6636    
   1135000   298.49895     -6.3857607      0              56.081765      2020.1615    
   1136000   296.83936     -4.7760681      0              57.34415       1995.3799    
   1137000   303.04207     -4.6881496      0              58.730124      1981.9169    
   1138000   300.99653     -3.3329045      0              59.657293      2094.5521    
   1139000   296.79945     -5.3976212      0              56.714244      2035.9129    
   1140000   304.44295     -4.2080649      0              59.503373      2181.8134    
   1141000   295.08168     -5.4385288      0              56.313856      2116.8863    
   1142000   295.39322     -4.4621255      0              57.355456      2077.7695    
   1143000   300.8427      -3.5054794      0              59.452526      2253.2939    
   1144000   302.08989     -4.5992228      0              58.619786      2133.5418    
   1145000   296.4582      -3.3717559      0              58.668697      2161.4796    
   1146000   293.67034     -5.7127065      0              55.744324      2103.4849    
   1147000   311.5957      -6.2134264      0              58.994884      1969.1043    
   1148000   307.4096      -3.1379772      0              61.194299      2073.7501    
   1149000   304.08481     -4.9540902      0              58.682398      2131.0782    
   1150000   297.02818     -4.5122903      0              57.647442      2033.6243    
   1151000   296.03871     -4.2973164      0              57.655347      2050.0335    
   1152000   282.89533     -4.3116822      0              54.890438      2107.2599    
   1153000   309.19075     -4.1802906      0              60.524731      2097.0143    
   1154000   293.02143     -3.7968266      0              57.524406      2102.3378    
   1155000   294.93935     -4.3766511      0              57.345948      2110.5424    
   1156000   294.87839     -4.5230025      0              57.18684       2007.7835    
   1157000   304.6124      -5.09612        0              58.650778      2092.9274    
   1158000   302.47636     -2.2087051      0              61.09118       2265.1939    
   1159000   316.32948     -5.0313414      0              61.167618      2018.8484    
   1160000   309.00449     -4.9335897      0              59.732452      2062.2881    
   1161000   284.35334     -4.5566735      0              54.950568      2098.5968    
   1162000   298.21708     -3.9746328      0              58.433904      2052.4908    
   1163000   305.05627     -3.8938312      0              59.945958      2156.0788    
   1164000   289.70003     -4.2744184      0              56.351737      2089.3545    
   1165000   308.37628     -5.6664729      0              58.868102      2120.1041    
   1166000   293.82434     -3.9351087      0              57.554151      2164.7103    
   1167000   304.61076     -4.8071851      0              58.939371      2090.1418    
   1168000   298.30146     -3.6437731      0              58.782422      2039.8651    
   1169000   292.03633     -4.917008       0              56.19807       2107.7964    
   1170000   293.85147     -2.7036469      0              58.79129       2150.1065    
   1171000   302.06011     -4.7235225      0              58.489253      2174.7927    
   1172000   308.57321     -4.4154045      0              60.160383      2147.1763    
   1173000   293.79556     -3.4231585      0              58.060077      2153.5141    
   1174000   299.03842     -6.7308873      0              55.849534      1993.1585    
   1175000   298.47281     -1.912287       0              60.549768      2229.9569    
   1176000   305.23602     -3.6671903      0              60.210215      2060.9392    
   1177000   297.61591     -5.8861738      0              56.396556      2027.2651    
   1178000   294.23994     -4.3342894      0              57.241942      2130.3877    
   1179000   295.53934     -4.6543772      0              57.193784      2101.4879    
   1180000   298.94806     -5.1561514      0              57.40536       2127.8617    
   1181000   299.24995     -5.5913166      0              57.033372      2025.5978    
   1182000   301.21377     -3.5569512      0              59.478709      2167.9855    
   1183000   300.70396     -5.5608066      0              57.368165      1952.3477    
   1184000   300.32846     -4.100994       0              58.749396      2135.1849    
   1185000   297.92759     -5.6466276      0              56.701326      2064.7244    
   1186000   294.00968     -5.0097697      0              56.518275      2012.2034    
   1187000   291.5717      -4.5652787      0              56.452565      2118.5112    
   1188000   292.96454     -4.7496943      0              56.559632      2097.0851    
   1189000   303.25416     -4.4789949      0              58.983663      2068.0942    
   1190000   301.1956      -5.5133521      0              57.518505      2047.8896    
   1191000   296.79636     -5.1080007      0              57.00322       2034.3692    
   1192000   293.97199     -3.6809372      0              57.839219      2025.7955    
   1193000   299.97434     -4.2457424      0              58.530541      2074.1797    
   1194000   295.87421     -5.2378437      0              56.680395      2031.1345    
   1195000   308.58666     -4.4416709      0              60.136931      2236.7226    
   1196000   304.28023     -4.109155       0              59.56823       2156.0887    
   1197000   286.50135     -4.9416107      0              55.01515       2119.3089    
   1198000   289.12314     -4.2788198      0              56.226608      1986.4947    
   1199000   291.11281     -3.6322641      0              57.289547      2161.5699    
   1200000   304.6413      -3.6429         0              60.110048      2133.4486    
   1201000   289.71966     -3.0462954      0              57.583967      2158.5402    
   1202000   299.6732      -5.1214223      0              57.591841      2054.8077    
   1203000   305.47835     -4.646378       0              59.28174       2049.1583    
   1204000   300.53755     -5.2301283      0              57.664018      2139.8266    
   1205000   294.52899     -4.1339789      0              57.502743      2052.1621    
   1206000   307.5412      -5.0139821      0              59.345833      2194.2122    
   1207000   307.75124     -4.8197761      0              59.583995      2070.1048    
   1208000   293.52453     -2.9923816      0              58.434135      2113.4581    
   1209000   296.90231     -4.2818624      0              57.85153       2070.7745    
   1210000   304.42972     -6.0603304      0              57.64834       2079.5954    
   1211000   297.82254     -6.9055161      0              55.420454      1955.0636    
   1212000   299.07267     -4.4649353      0              58.122652      2218.9047    
   1213000   303.91568     -4.0058757      0              59.595219      2145.7739    
   1214000   302.78129     -4.5832471      0              58.780452      2148.9902    
   1215000   299.46597     -4.874014       0              57.795881      1958.9562    
   1216000   291.30157     -5.0541992      0              55.907113      2087.0402    
   1217000   293.51821     -5.6167062      0              55.808487      2062.6206    
   1218000   304.73578     -5.7968082      0              57.975911      2060.935     
   1219000   308.51335     -5.4042007      0              59.159059      2090.5138    
   1220000   293.09221     -4.3313659      0              57.004677      2039.1628    
   1221000   294.17459     -5.3176609      0              56.244896      2021.0176    
   1222000   292.49746     -3.9270802      0              57.284499      2051.4397    
   1223000   277.12462     -4.1713958      0              53.823076      2056.7785    
   1224000   314.69628     -3.3897465      0              62.467428      2136.2829    
   1225000   304.82489     -3.2800535      0              60.511314      2096.345     
   1226000   287.02295     -4.725918       0              55.34          2039.9757    
   1227000   295.03441     -3.5378544      0              58.204638      2009.6154    
   1228000   313.2397      -4.3517802      0              61.200573      2094.4065    
   1229000   288.74903     -3.7048323      0              56.722304      2104.2343    
   1230000   301.40244     -4.1476433      0              58.927501      2138.6368    
   1231000   309.14902     -3.0585005      0              61.637786      2233.7311    
   1232000   300.20629     -5.1969175      0              57.627906      1983.6471    
   1233000   290.43418     -4.7409776      0              56.038814      2019.7494    
   1234000   300.30579     -3.7648811      0              59.080764      2229.9449    
   1235000   297.58321     -4.2670185      0              58.008866      2173.7897    
   1236000   300.0672      -6.2264198      0              56.569295      2013.0138    
   1237000   303.96879     -4.5896619      0              59.022548      1961.9001    
   1238000   296.57319     -6.8924942      0              55.172023      2108.1893    
   1239000   304.05664     -5.5608677      0              58.069726      2119.3964    
   1240000   304.97332     -5.7307876      0              58.091643      2160.2173    
   1241000   300.70114     -4.5497489      0              58.378632      2030.5986    
   1242000   294.45727     -3.8490214      0              57.772691      2123.2264    
   1243000   295.46038     -4.276866       0              57.55477       2094.4654    
   1244000   305.55397     -3.9449288      0              59.999015      2145.4688    
   1245000   307.30241     -4.9847623      0              59.32508       2038.6153    
   1246000   292.4806      -3.231012       0              57.97704       2160.621     
   1247000   300.03061     -2.9997665      0              59.788291      2098.6808    
   1248000   301.67394     -5.5145758      0              57.617386      2022.4339    
   1249000   288.26324     -2.8336527      0              57.491823      2181.6816    
   1250000   298.26153     -3.1989737      0              59.218865      2221.9905    
   1251000   299.4148      -5.8978729      0              56.761314      1980.5988    
   1252000   300.25727     -5.7967406      0              57.038752      2091.4827    
   1253000   305.04735     -2.729402       0              61.108521      2101.3791    
   1254000   297.24737     -5.085648       0              57.119955      1981.278     
   1255000   299.03352     -3.7233068      0              58.856088      2114.2471    
   1256000   297.02578     -2.9756991      0              59.183531      2154.1161    
   1257000   289.22639     -3.8032719      0              56.723765      2184.5264    
   1258000   292.39608     -5.4005613      0              55.789803      2037.1477    
   1259000   298.51068     -5.8864106      0              56.583568      2000.2614    
   1260000   296.19622     -4.3879533      0              57.597674      2087.3164    
   1261000   303.93701     -4.2862953      0              59.319264      2148.0607    
   1262000   308.68864     -6.1360869      0              58.463857      2061.1513    
   1263000   300.99864     -5.0261057      0              57.964534      2053.655     
   1264000   304.17618     -3.6381463      0              60.017464      2174.2869    
   1265000   301.08227     -4.3278008      0              58.680341      2101.5691    
   1266000   299.4383      -5.5759978      0              57.088106      1986.934     
   1267000   295.70837     -3.9641426      0              57.919391      2095.5925    
   1268000   307.43518     -4.6127034      0              59.724926      2014.9292    
   1269000   297.98228     -5.5400886      0              56.819312      1934.4439    
   1270000   306.34491     -4.9588135      0              59.150651      2109.8217    
   1271000   302.94886     -4.6468685      0              58.751899      2033.8919    
   1272000   304.20314     -5.7580001      0              57.903253      2057.0333    
   1273000   297.37156     -5.8993415      0              56.332251      2142.8794    
   1274000   303.02979     -5.994761       0              57.420943      2058.732     
   1275000   291.23951     -5.6028963      0              55.345429      2028.2946    
   1276000   287.15343     -5.6654616      0              54.427761      2018.38      
   1277000   297.70699     -4.3732835      0              57.928507      2150.0741    
   1278000   297.81808     -3.4223301      0              58.902707      2144.4371    
   1279000   299.84204     -4.2716782      0              58.476918      2127.1396    
   1280000   300.97215     -3.4851336      0              59.499963      2140.5952    
   1281000   301.38039     -4.26195        0              58.80858       2228.3037    
   1282000   296.71934     -5.761617       0              56.333486      2044.0977    
   1283000   301.26781     -4.0206788      0              59.026291      2092.2363    
   1284000   304.8096      -5.5472135      0              58.240955      2038.0405    
   1285000   303.25519     -4.3288533      0              59.134019      2115.7265    
   1286000   299.7308      -4.8023553      0              57.922962      2031.6135    
   1287000   286.99998     -3.2825166      0              56.778594      2052.3527    
   1288000   295.73054     -4.8395756      0              57.048598      1949.1362    
   1289000   300.58946     -5.0580523      0              57.846958      2069.223     
   1290000   291.96928     -4.2418355      0              56.859212      2188.5038    
   1291000   294.45592     -2.3345114      0              59.286919      2209.8366    
   1292000   310.4959      -5.811799       0              59.166353      2153.873     
   1293000   291.50965     -4.1186794      0              56.886179      2105.1766    
   1294000   303.26798     -5.0090063      0              58.456542      2032.6289    
   1295000   292.614       -4.3307204      0              56.905247      2157.1537    
   1296000   307.4621      -5.147328       0              59.195934      2111.0398    
   1297000   308.26775     -5.4081352      0              59.103728      2024.1908    
   1298000   293.51158     -5.0373743      0              56.386432      2060.9831    
   1299000   288.83365     -3.0626227      0              57.382224      2116.1278    
   1300000   296.09044     -5.236142       0              56.727349      2113.8141    
   1301000   301.4217      -5.0353395      0              58.043836      2017.0788    
   1302000   301.14748     -4.6000881      0              58.421699      2034.8128    
   1303000   297.93124     -4.1492756      0              58.199444      2104.7189    
   1304000   300.85998     -3.161316       0              59.800305      2090.8892    
   1305000   299.95899     -5.9150305      0              56.858039      2150.3384    
   1306000   300.80937     -4.7947312      0              58.156299      2058.8522    
   1307000   291.6791      -4.6776637      0              56.362655      2223.5629    
   1308000   300.48728     -4.5739312      0              58.309695      2164.5415    
   1309000   286.18464     -5.1541402      0              54.736342      2150.3007    
   1310000   303.98295     -3.0549568      0              60.560215      2222.6856    
   1311000   303.69378     -4.7942121      0              58.760447      2074.6474    
   1312000   291.17336     -2.9973731      0              57.937109      2076.5867    
   1313000   298.21776     -3.4238657      0              58.984814      2134.4019    
   1314000   293.08106     -4.7841072      0              56.549603      2058.3446    
   1315000   295.78653     -3.6559076      0              58.243983      2062.4417    
   1316000   304.23332     -3.0589024      0              60.608666      2176.6233    
   1317000   306.70197     -4.9129394      0              59.271249      2058.6153    
   1318000   295.78295     -4.2345592      0              57.664582      2072.4473    
   1319000   304.16587     -5.2722889      0              58.381164      2061.8031    
   1320000   293.12955     -4.6208473      0              56.723011      2062.6623    
   1321000   307.98555     -4.0352948      0              60.417511      2172.8277    
   1322000   310.23778     -5.0336599      0              59.890475      2103.9368    
   1323000   290.76771     -4.1800018      0              56.66959       2137.4517    
   1324000   295.32072     -3.0529704      0              58.74944       2181.4893    
   1325000   298.35623     -6.590193       0              55.847464      2024.0151    
   1326000   300.08332     -3.4019542      0              59.397134      2211.8531    
   1327000   308.05522     -5.2336104      0              59.233776      2102.3284    
   1328000   295.7077      -4.1397548      0              57.743639      2197.3587    
   1329000   301.90393     -4.4857157      0              58.694377      2110.4621    
   1330000   296.59687     -4.3038383      0              57.765633      2089.8833    
   1331000   298.6992      -5.1487316      0              57.3607        2131.3815    
   1332000   297.95621     -4.1378674      0              58.216077      2191.2016    
   1333000   311.04892     -5.6093238      0              59.484561      2098.7504    
   1334000   306.44047     -4.6024776      0              59.526986      2168.0739    
   1335000   293.61939     -5.0158212      0              56.430547      2204.337     
   1336000   303.28207     -3.7942496      0              59.67425       2078.7695    
   1337000   298.68783     -3.5985082      0              58.908544      2134.6724    
   1338000   299.92882     -6.0577442      0              56.709011      2074.3791    
   1339000   291.91809     -4.1882559      0              56.902077      2062.2841    
   1340000   309.43629     -5.701953       0              59.054452      2130.0084    
   1341000   299.32426     -6.1159549      0              56.524284      1967.1175    
   1342000   304.37136     -5.2814577      0              58.414999      2141.4101    
   1343000   293.58976     -5.7675253      0              55.672642      2004.9017    
   1344000   289.29175     -3.7308426      0              56.809871      1987.9238    
   1345000   292.08057     -3.7269341      0              57.397402      2114.6565    
   1346000   293.23207     -4.9860283      0              56.379285      2014.6477    
   1347000   306.16203     -4.781659       0              59.289534      2066.725     
   1348000   295.66285     -2.222528       0              59.651479      2197.0042    
   1349000   298.23499     -5.3302069      0              57.082077      2110.4723    
   1350000   304.0853      -4.433431       0              59.203161      2170.458     
   1351000   303.94935     -6.2332656      0              57.374875      2066.9405    
   1352000   296.59066     -4.5203514      0              57.547821      2068.5624    
   1353000   297.28131     -4.7055384      0              57.507167      2121.2249    
   1354000   295.48814     -4.7168689      0              57.120576      2109.6287    
   1355000   300.99883     -4.5337013      0              58.456979      2038.6865    
   1356000   304.84705     -3.7588115      0              60.037194      2133.5387    
   1357000   305.7411      -4.004769       0              59.978335      2110.8697    
   1358000   308.99899     -5.71191        0              58.95298       2050.6079    
   1359000   289.44334     -6.5670512      0              54.005386      1974.7988    
   1360000   302.1205      -4.6202697      0              58.605144      2085.3375    
   1361000   306.07092     -4.8728623      0              59.179265      2038.3672    
   1362000   311.35203     -3.6107159      0              61.5466        2089.1408    
   1363000   284.53365     -3.6036633      0              55.941313      2093.8663    
   1364000   299.40944     -5.3490766      0              57.308988      1984.4739    
   1365000   303.88801     -4.1116342      0              59.48367       2119.0815    
   1366000   295.6239      -4.4991263      0              57.36673       2016.7825    
   1367000   306.44205     -5.9512926      0              58.178502      2148.9724    
   1368000   294.27805     -4.7788234      0              56.805384      2091.0051    
   1369000   301.97463     -5.0726837      0              58.122204      2037.5797    
   1370000   302.6378      -5.2540491      0              58.079622      2217.1271    
   1371000   310.91468     -4.2535593      0              60.812232      2045.9804    
   1372000   308.0171      -4.7313312      0              59.728077      2119.4017    
   1373000   294.20193     -4.1708895      0              57.397388      2006.3296    
   1374000   289.45975     -2.9754058      0              57.600466      2148.8692    
   1375000   309.38304     -5.2310103      0              59.514251      2119.5794    
   1376000   309.28157     -3.9862748      0              60.737751      2145.4783    
   1377000   305.71928     -5.2240982      0              58.754441      2103.8017    
   1378000   304.40974     -4.6784735      0              59.026015      2068.1447    
   1379000   302.79274     -3.6807289      0              59.685366      2149.8979    
   1380000   301.45109     -4.4222201      0              58.663104      2122.6143    
   1381000   295.88477     -4.2211916      0              57.699257      2047.4156    
   1382000   303.80195     -2.8833185      0              60.693975      2225.1284    
   1383000   305.384       -3.9312377      0              59.977136      2088.9721    
   1384000   293.89685     -5.0123915      0              56.492042      2047.0825    
   1385000   295.74059     -4.9248588      0              56.965417      2096.5199    
   1386000   308.1856      -5.1026752      0              59.391996      2086.9721    
   1387000   293.76872     -3.8437492      0              57.633869      2110.1542    
   1388000   297.6411      -5.0756539      0              57.212347      2089.214     
   1389000   296.922       -4.1239886      0              58.013524      2143.6877    
   1390000   309.35505     -4.299858       0              60.439546      2199.2112    
   1391000   294.20482     -4.1338215      0              57.435062      2113.5901    
   1392000   297.64886     -4.1651538      0              58.124471      2177.0565    
   1393000   302.14105     -5.3845913      0              57.845123      2048.8386    
   1394000   296.58514     -4.6865958      0              57.380421      2096.1913    
   1395000   296.8498      -5.9447491      0              56.177655      2096.2383    
   1396000   295.12802     -4.7911493      0              56.970933      1954.81      
   1397000   307.97686     -4.1663653      0              60.284621      2035.9702    
   1398000   295.38227     -4.625032       0              57.190259      2021.2793    
   1399000   302.93921     -5.6886553      0              57.708093      2083.4471    
   1400000   299.41773     -5.5721225      0              57.087677      2111.9464    
   1401000   305.75643     -4.4310923      0              59.55522       2092.4011    
   1402000   299.33461     -3.7417094      0              58.900695      2213.6324    
   1403000   298.89375     -4.0315638      0              58.51858       2155.29      
   1404000   289.77283     -2.9563013      0              57.685089      2128.402     
   1405000   299.78605     -4.0343337      0              58.702544      2139.6485    
   1406000   312.99772     -3.8419655      0              61.659749      2061.2388    
   1407000   302.43594     -5.7661211      0              57.525306      2060.1079    
   1408000   306.09843     -5.3779265      0              58.679958      2064.7733    
   1409000   304.18956     -3.2510262      0              60.407384      2196.5991    
   1410000   314.71079     -5.8423252      0              60.017886      1990.9408    
   1411000   303.29983     -4.586998       0              58.885217      2102.2562    
   1412000   294.50079     -5.0193697      0              56.61145       2210.1582    
   1413000   298.82001     -5.3223929      0              57.212321      2068.8724    
   1414000   303.15183     -6.5581913      0              56.883052      2062.2226    
   1415000   307.93134     -4.7055696      0              59.735891      2096.2258    
   1416000   305.44611     -6.332529       0              57.588843      2050.1407    
   1417000   303.86194     -5.3560699      0              58.233778      1963.8877    
   1418000   311.19484     -5.640139       0              59.484282      2080.7245    
   1419000   301.45011     -5.7808271      0              57.304293      1980.041     
   1420000   300.23368     -3.8921219      0              58.938434      2096.1148    
   1421000   307.90407     -2.9252644      0              61.510489      2186.0302    
   1422000   317.64808     -3.3894971      0              63.085408      2124.6997    
   1423000   296.68659     -4.4480613      0              57.640187      2008.1335    
   1424000   306.92175     -4.8728663      0              59.357315      2148.0575    
   1425000   303.43204     -4.2058169      0              59.294067      2201.6115    
   1426000   301.55466     -4.7565383      0              58.350462      2103.0452    
   1427000   300.15454     -4.801475       0              58.012518      2068.8442    
   1428000   301.95317     -6.0167919      0              57.173605      2088.7797    
   1429000   300.9896      -5.0513253      0              57.937424      2058.8291    
   1430000   290.84368     -4.8464802      0              56.019009      2149.3904    
   1431000   296.7274      -4.9131323      0              57.183656      2078.7241    
   1432000   305.84029     -3.8656046      0              60.138258      2174.1749    
   1433000   305.12193     -3.4357585      0              60.417772      2163.0975    
   1434000   305.25149     -5.3304668      0              58.550176      2026.6908    
   1435000   301.19792     -6.3606143      0              56.67173       2105.0711    
   1436000   300.04862     -4.4535375      0              58.338289      1988.3976    
   1437000   294.04425     -4.3388804      0              57.196399      2134.4712    
   1438000   294.96408     -3.1896651      0              58.538109      2155.7116    
   1439000   292.32376     -2.0653272      0              59.109903      2216.6158    
   1440000   297.68431     -5.1067485      0              57.190294      2104.2605    
   1441000   305.53384     -6.3933778      0              57.546354      1978.2544    
   1442000   289.25235     -3.4480004      0              57.084467      2079.0654    
   1443000   308.08021     -6.4653016      0              58.007313      1967.8065    
   1444000   298.31457     -5.2344674      0              57.194471      2054.5231    
   1445000   285.55941     -4.1367856      0              55.622853      2159.6637    
   1446000   297.91846     -3.2596039      0              59.08644       2103.7197    
   1447000   314.5512      -3.7066137      0              62.120199      2089.1106    
   1448000   290.05196     -4.1739685      0              56.525835      2107.3445    
   1449000   301.02083     -2.8514509      0              60.143834      2180.99      
   1450000   301.43305     -4.1024756      0              58.979074      2135.3212    
   1451000   300.65424     -4.0894531      0              58.829113      2103.7467    
   1452000   296.64695     -4.0258995      0              58.054053      2147.1149    
   1453000   295.97545     -3.9463239      0              57.993102      2008.5281    
   1454000   298.35542     -3.4669874      0              58.9705        2075.8404    
   1455000   307.05758     -3.8721141      0              60.386494      2055.1359    
   1456000   301.81331     -5.3750523      0              57.786075      2098.764     
   1457000   292.24217     -6.050168       0              55.107986      2093.2996    
   1458000   301.26388     -6.2727665      0              56.77338       1973.1788    
   1459000   297.49464     -3.5560892      0              58.701262      2080.6664    
   1460000   300.37716     -4.1825496      0              58.678032      2030.9255    
   1461000   303.81795     -4.8037258      0              58.776917      2128.5774    
   1462000   296.04721     -3.9892186      0              57.965226      2134.1678    
   1463000   298.11795     -5.437415       0              56.950376      1960.0169    
   1464000   296.33698     -3.7872504      0              58.227834      2100.5391    
   1465000   300.87025     -5.3757671      0              57.588004      2074.0111    
   1466000   294.84964     -4.3524822      0              57.351342      2060.3931    
   1467000   292.85044     -4.6554745      0              56.629974      2088.5514    
   1468000   298.56205     -4.0920097      0              58.38872       2102.319     
   1469000   306.39084     -4.6642518      0              59.454825      1988.5861    
   1470000   294.62212     -4.3151147      0              57.341098      2124.5899    
   1471000   309.46439     -5.3243407      0              59.437946      2097.0085    
   1472000   301.01093     -6.1567079      0              56.836504      2032.7449    
   1473000   296.90149     -5.4775896      0              56.655631      2089.8934    
   1474000   301.03071     -4.5262086      0              58.471142      2018.0552    
   1475000   304.73884     -5.3453873      0              58.427972      2064.5598    
   1476000   300.58074     -3.5283246      0              59.374861      2154.6156    
   1477000   291.27471     -6.1758768      0              54.779815      1959.4496    
   1478000   298.04976     -3.9645608      0              58.408961      2065.2909    
   1479000   300.39806     -4.5267552      0              58.3382        2193.4012    
   1480000   294.96021     -3.8801751      0              57.846789      2040.5939    
   1481000   306.9179      -4.3441803      0              59.885196      2105.9487    
   1482000   305.0754      -3.8103129      0              60.03348       2082.7716    
   1483000   304.39089     -3.3828258      0              60.317718      2142.7622    
   1484000   298.10486     -3.3567663      0              59.028286      2121.4756    
   1485000   297.21854     -4.1974017      0              58.002169      2084.5354    
   1486000   314.57299     -3.1325458      0              62.698828      2209.6957    
   1487000   303.86331     -4.9235954      0              58.66654       2117.5584    
   1488000   305.90265     -4.8851544      0              59.131758      2006.1619    
   1489000   293.78309     -5.4902003      0              55.990426      2027.6089    
   1490000   292.48608     -4.9985647      0              56.210633      2025.2293    
   1491000   293.25115     -5.427866       0              55.94144       2016.6916    
   1492000   291.46874     -5.4124727      0              55.583825      2114.0235    
   1493000   304.21492     -4.6843345      0              58.979384      2032.0614    
   1494000   295.47536     -5.2512898      0              56.583481      1992.0518    
   1495000   300.00118     -2.9243206      0              59.857578      2139.0052    
   1496000   314.74653     -4.2496885      0              61.618003      2103.0941    
   1497000   300.74859     -4.9726526      0              57.965658      2121.7098    
   1498000   308.97157     -4.1896032      0              60.46955       2068.9787    
   1499000   295.01318     -5.2553042      0              56.482745      2123.2698    
   1500000   288.30416     -5.0051633      0              55.328875      2021.8642    
   1501000   299.64801     -5.0528009      0              57.655189      2161.5425    
   1502000   294.4541      -3.9643475      0              57.656702      2120.1415    
   1503000   297.24536     -3.7415767      0              58.463605      2180.6926    
   1504000   300.75256     -2.8352836      0              60.10386       2147.9001    
   1505000   295.70112     -2.9663114      0              58.915706      2063.3581    
   1506000   295.453       -4.7951394      0              57.034952      2082.8921    
   1507000   297.43922     -4.8837333      0              57.362018      2152.0638    
   1508000   299.65707     -5.0113775      0              57.698509      2044.5603    
   1509000   297.31061     -4.9907839      0              57.228055      2153.8019    
   1510000   298.66763     -6.3319441      0              56.170881      2003.0046    
   1511000   306.58938     -5.908496       0              58.252131      2069.4873    
   1512000   298.85102     -4.3580011      0              58.183201      1969.5539    
   1513000   291.13768     -5.3641801      0              55.562835      2163.3211    
   1514000   296.39787     -5.2316624      0              56.796164      2039.4431    
   1515000   294.84361     -4.437137       0              57.265426      2062.8999    
   1516000   306.93504     -3.9753357      0              60.257628      2068.0292    
   1517000   298.96206     -2.7692257      0              59.795216      2158.6418    
   1518000   305.69594     -4.5250016      0              59.448653      2091.0536    
   1519000   296.17443     -4.2873631      0              57.693703      2044.3724    
   1520000   298.36962     -3.910808       0              58.529651      2225.6154    
   1521000   307.3794      -2.3575829      0              61.968372      2114.401     
   1522000   298.55127     -5.0710113      0              57.407461      2137.8239    
   1523000   293.68606     -4.836781       0              56.62354       1963.7931    
   1524000   287.51624     -4.561535       0              55.607613      2090.5582    
   1525000   301.28937     -4.4255897      0              58.625893      2143.9772    
   1526000   299.06394     -4.0462268      0              58.539535      2108.5074    
   1527000   286.47697     -4.029613       0              55.922046      2031.8399    
   1528000   311.89965     -3.6741933      0              61.597725      2159.4529    
   1529000   299.54005     -4.4421074      0              58.243291      2083.2382    
   1530000   292.23404     -4.7648934      0              56.39156       2129.2444    
   1531000   303.73332     -4.5531074      0              59.009825      1961.4465    
   1532000   301.31504     -3.8455446      0              59.211308      2018.1167    
   1533000   284.37216     -2.373816       0              57.137364      2178.5806    
   1534000   302.36878     -4.9807996      0              58.296573      1971.9706    
   1535000   299.37274     -4.4206325      0              58.229752      2191.9296    
   1536000   297.77324     -4.5766394      0              57.739014      2142.6762    
   1537000   300.0097      -4.9220349      0              57.861647      2049.1415    
   1538000   295.67074     -5.2505356      0              56.625123      2069.2365    
   1539000   288.10091     -4.5002667      0              55.791238      2095.805     
   1540000   300.86376     -5.0052356      0              57.957178      2019.2291    
   1541000   295.00102     -5.6488008      0              56.086704      2054.9789    
   1542000   293.33007     -4.4822856      0              56.903535      2148.8094    
   1543000   295.16169     -3.4528043      0              58.316324      2123.22      
   1544000   287.44785     -3.821986       0              56.332852      2000.2747    
   1545000   310.04349     -3.5708818      0              61.312594      2203.9016    
   1546000   305.13052     -3.642877       0              60.21245       2254.8713    
   1547000   300.05845     -5.244473       0              57.54941       2059.4385    
   1548000   297.78163     -3.4208415      0              58.896569      2083.1404    
   1549000   301.07438     -4.8887387      0              58.117751      2131.8422    
   1550000   287.70676     -4.8147381      0              55.394281      2193.9474    
   1551000   297.6342      -5.1015705      0              57.184986      2031.5319    
   1552000   298.32603     -4.3410697      0              58.090268      2131.1732    
   1553000   298.43187     -4.7245154      0              57.72897       2017.341     
   1554000   297.30736     -3.9703621      0              58.247797      2146.9734    
   1555000   303.39815     -3.6252956      0              59.867495      2124.6652    
   1556000   293.06217     -4.4915131      0              56.838244      2087.6353    
   1557000   311.47686     -5.8265167      0              59.356923      2040.3803    
   1558000   309.45155     -3.4520292      0              61.30757       2126.7492    
   1559000   305.43422     -4.0390587      0              59.879824      2076.9807    
   1560000   309.22943     -4.9234201      0              59.789695      2074.8295    
   1561000   297.96741     -4.0648333      0              58.291454      2163.5894    
   1562000   295.69539     -4.6435752      0              57.237242      2012.1865    
   1563000   303.08409     -4.6842874      0              58.742778      2132.2599    
   1564000   296.01596     -4.6879882      0              57.259916      2123.4932    
   1565000   291.87386     -3.1322986      0              57.948778      2145.0111    
   1566000   292.32032     -4.5966291      0              56.57788       2037.7181    
   1567000   290.47377     -4.8881592      0              55.899918      1962.0683    
   1568000   300.7355      -4.4988482      0              58.436724      2120.4509    
   1569000   306.84654     -5.2275054      0              58.986937      2165.9719    
   1570000   298.27472     -3.656659       0              58.763941      2021.9376    
   1571000   300.26343     -3.7719908      0              59.064791      2096.2925    
   1572000   312.78871     -3.7253699      0              61.732603      2139.4801    
   1573000   298.14962     -3.9715016      0              58.422917      2061.7603    
   1574000   290.77843     -6.1371671      0              54.714666      2014.7028    
   1575000   297.85642     -6.1231881      0              56.209872      2070.3914    
   1576000   298.93577     -5.2994763      0              57.259463      2107.2258    
   1577000   307.77257     -5.4391217      0              58.969114      2058.8645    
   1578000   293.93175     -4.5487241      0              56.963013      2127.1416    
   1579000   300.80165     -4.412746       0              58.53667       2083.0886    
   1580000   297.41391     -4.3212801      0              57.919176      2046.1815    
   1581000   301.23211     -4.7157648      0              58.323735      2152.4269    
   1582000   295.20066     -3.5107412      0              58.266543      2138.9808    
   1583000   293.93111     -4.1826238      0              57.328978      2025.2052    
   1584000   304.30871     -5.3357131      0              58.347633      2150.5911    
   1585000   299.29655     -4.2185447      0              58.415896      2009.9792    
   1586000   297.08209     -4.9186429      0              57.252372      2037.9121    
   1587000   308.05462     -3.5621574      0              60.905104      2172.9362    
   1588000   312.59552     -5.300497       0              60.117046      2084.2476    
   1589000   309.07585     -5.7314797      0              58.949496      2090.1871    
   1590000   300.5489      -6.0165947      0              56.879927      1968.6546    
   1591000   295.47098     -2.8582125      0              58.975642      2149.3353    
   1592000   303.03891     -5.7696733      0              57.647939      2054.318     
   1593000   300.19588     -6.1208284      0              56.701816      2037.4022    
   1594000   301.26834     -3.8870635      0              59.160017      2158.179     
   1595000   296.62699     -4.6101266      0              57.465648      2210.4389    
   1596000   302.62532     -2.8277068      0              60.503353      2175.0787    
   1597000   294.86571     -4.6326886      0              57.074499      2000.8004    
   1598000   310.08655     -5.3685985      0              59.523887      2009.9068    
   1599000   307.06746     -5.7783934      0              58.482282      1994.8719    
   1600000   303.03032     -2.9402701      0              60.475543      2207.6362    
   1601000   297.30517     -5.1868588      0              57.03084       2065.7522    
   1602000   292.88464     -4.2525129      0              57.040093      2004.4399    
   1603000   296.44063     -4.5152254      0              57.52155       2099.4868    
   1604000   298.4184      -5.0550322      0              57.395634      2169.3697    
   1605000   288.83751     -4.145244       0              56.300409      2083.5488    
   1606000   300.4291      -4.2490137      0              58.622438      2041.5354    
   1607000   291.27514     -3.3280622      0              57.62772       2154.322     
   1608000   300.69921     -3.2851342      0              59.642843      2137.7231    
   1609000   293.11041     -3.5205119      0              57.81934       2111.149     
   1610000   294.3976      -3.2173485      0              58.391877      2154.6626    
   1611000   305.11931     -4.7705214      0              59.08246       2032.6507    
   1612000   294.27611     -3.4274353      0              58.156365      2126.2982    
   1613000   297.22098     -4.6607999      0              57.539282      1988.9716    
   1614000   299.14329     -5.0885801      0              57.513787      2045.0811    
   1615000   290.71819     -5.2424915      0              55.596735      2012.418     
   1616000   301.22474     -3.6485124      0              59.389444      2174.6114    
   1617000   292.96131     -4.2405788      0              57.068072      2064.3649    
   1618000   298.69646     -4.5302387      0              57.978618      2152.5368    
   1619000   281.67339     -6.0263762      0              52.920027      2014.3098    
   1620000   303.90047     -4.3797753      0              59.218136      2133.7451    
   1621000   294.96382     -4.7376996      0              56.990021      2111.2928    
   1622000   303.56303     -5.5016913      0              58.025603      2025.5706    
   1623000   290.66595     -4.7333758      0              56.09492       2238.5135    
   1624000   299.24743     -3.2655454      0              59.358615      2153.4052    
   1625000   297.70366     -4.4846855      0              57.816407      2014.6594    
   1626000   300.16787     -5.9070525      0              56.909731      2077.2645    
   1627000   305.30106     -4.0179216      0              59.873095      2061.6275    
   1628000   304.41505     -8.1169206      0              55.588678      1940.6102    
   1629000   303.89955     -5.3075551      0              58.290165      2147.8299    
   1630000   301.23314     -5.3985474      0              57.641168      2045.4531    
   1631000   306.87919     -3.6151009      0              60.606175      2080.3305    
   1632000   299.38264     -4.5720221      0              58.080434      2115.8026    
   1633000   306.48337     -4.5554572      0              59.582984      2127.5008    
   1634000   296.39131     -4.8423212      0              57.184133      2196.2834    
   1635000   298.86628     -5.7730574      0              56.77134       2040.3415    
   1636000   301.38932     -4.8885394      0              58.18386       1983.5601    
   1637000   306.63022     -5.5978785      0              58.571294      2055.2097    
   1638000   298.66376     -5.8976213      0              56.604394      2077.0351    
   1639000   293.23377     -5.5792255      0              55.786443      2048.4511    
   1640000   304.41691     -6.2591549      0              57.446834      2063.3256    
   1641000   298.91009     -4.4979337      0              58.055631      2075.3856    
   1642000   290.49321     -4.9928818      0              55.799264      2046.8964    
   1643000   296.25407     -4.3337421      0              57.663992      2071.0877    
   1644000   299.13568     -4.0397987      0              58.560975      2078.165     
   1645000   292.71717     -4.8860968      0              56.371462      2155.7777    
   1646000   304.08923     -5.1218663      0              58.515547      2092.4784    
   1647000   304.08382     -3.7123328      0              59.92395       2188.6604    
   1648000   296.8852      -5.0130213      0              57.11679       2128.7557    
   1649000   302.84837     -5.0491552      0              58.328582      2155.1779    
   1650000   299.60927     -4.8740741      0              57.82581       2077.2754    
   1651000   301.51262     -5.4355888      0              57.662613      2119.8514    
   1652000   301.57434     -4.5639398      0              58.547177      2079.2106    
   1653000   299.76905     -5.6683815      0              57.06494       2085.8335    
   1654000   304.34179     -4.6277787      0              59.06249       2088.4186    
   1655000   300.11534     -6.5546782      0              56.251112      2005.0612    
   1656000   289.33135     -4.7072543      0              55.841747      2050.6093    
   1657000   305.69718     -3.6747518      0              60.299162      2123.4263    
   1658000   302.10311     -3.6561736      0              59.565601      2167.0784    
   1659000   291.37638     -5.7252351      0              55.251735      2088.0938    
   1660000   294.6         -6.7124205      0              54.939163      2043.7785    
   1661000   304.17036     -4.2863684      0              59.368025      2038.9279    
   1662000   294.83721     -5.2383862      0              56.462838      2101.9366    
   1663000   297.60381     -5.1516859      0              57.128511      2105.1593    
   1664000   298.67126     -4.7809987      0              57.722585      2036.1694    
   1665000   307.2743      -5.2895598      0              59.014402      2058.4524    
   1666000   299.70466     -3.0495418      0              59.670305      2179.5895    
   1667000   300.06417     -5.1814332      0              57.613648      2105.8167    
   1668000   298.87327     -3.7484358      0              58.797423      2086.8654    
   1669000   313.45793     -4.6571357      0              60.940887      2117.4015    
   1670000   286.67451     -4.8107678      0              55.182231      2027.3073    
   1671000   304.91303     -4.8010114      0              59.008802      2119.8258    
   1672000   297.44287     -5.628222       0              56.618294      2053.0901    
   1673000   311.08309     -3.6012846      0              61.499749      2258.8709    
   1674000   297.88953     -5.0778226      0              57.262167      2105.8614    
   1675000   301.46625     -3.042056       0              60.046442      2219.1072    
   1676000   308.36443     -3.4534004      0              61.078695      2211.1665    
   1677000   302.45216     -3.8091952      0              59.485626      2036.9306    
   1678000   293.85756     -3.5523747      0              57.943836      2151.1658    
   1679000   292.17211     -3.2578348      0              57.885658      2047.8407    
   1680000   311.52785     -5.1641592      0              60.029951      2043.8914    
   1681000   307.62462     -5.0543516      0              59.322922      2193.4622    
   1682000   311.71888     -4.6886483      0              60.54544       2001.6857    
   1683000   305.95676     -3.0689226      0              60.959313      2185.0841    
   1684000   292.75827     -2.8860415      0              58.380119      2118.3243    
   1685000   300.86019     -5.7658352      0              57.19583       2005.5381    
   1686000   306.27229     -6.0383634      0              58.055905      2028.6922    
   1687000   294.66194     -4.50448        0              57.160064      2082.6689    
   1688000   316.6883      -4.237334       0              62.036715      2194.6257    
   1689000   302.56832     -6.4495195      0              56.869612      2086.1916    
   1690000   293.09422     -5.8381705      0              55.498295      2060.6618    
   1691000   298.44562     -4.1932792      0              58.263085      2120.9409    
   1692000   300.87617     -3.3957819      0              59.56923       2072.3977    
   1693000   291.26452     -2.0047794      0              58.94878       2180.3284    
   1694000   294.63792     -4.7209327      0              56.938587      2090.0974    
   1695000   305.43837     -3.8916691      0              60.028084      2065.3763    
   1696000   289.25329     -4.3351544      0              56.19751       2078.0729    
   1697000   298.59832     -2.7880267      0              59.700294      2147.0226    
   1698000   303.74595     -5.4769417      0              58.088634      2086.1943    
   1699000   302.87385     -4.7969348      0              58.586135      2143.2606    
   1700000   299.29927     -6.0664587      0              56.56855       2022.1872    
   1701000   306.60119     -5.0248113      0              59.138286      2229.9007    
   1702000   302.92365     -4.293642       0              59.099849      2160.5202    
   1703000   298.49385     -3.9601983      0              58.506258      2090.1303    
   1704000   300.99897     -2.9921051      0              59.998604      2198.6707    
   1705000   294.3381      -6.2397182      0              55.357057      1984.5439    
   1706000   293.32742     -5.7555042      0              55.629762      2015.6094    
   1707000   306.08271     -4.1491734      0              59.905421      2136.6869    
   1708000   305.93057     -4.8372972      0              59.185458      2156.3973    
   1709000   301.62117     -4.9298584      0              58.191061      2097.6795    
   1710000   299.24588     -4.8324686      0              57.791367      2069.9219    
   1711000   304.46714     -4.7392989      0              58.977202      2096.0894    
   1712000   296.70326     -3.466411       0              58.625325      2094.7125    
   1713000   286.13703     -4.1123075      0              55.76821       2117.8775    
   1714000   292.1744      -4.3986793      0              56.745293      2079.984     
   1715000   295.14504     -3.8133338      0              57.95231       2194.9894    
   1716000   294.65385     -5.468085       0              56.194768      1984.603     
   1717000   308.25072     -3.0064506      0              61.501848      2182.6924    
   1718000   307.88958     -4.3626644      0              60.070057      2105.2222    
   1719000   302.35193     -5.763553       0              57.510293      2039.7776    
   1720000   287.05558     -4.0463424      0              56.026404      2043.3678    
   1721000   300.12529     -3.9580363      0              58.849836      2134.8874    
   1722000   292.70977     -5.2673718      0              55.988638      2047.355     
   1723000   303.16177     -6.015739       0              57.427583      1980.3671    
   1724000   302.12298     -4.9092805      0              58.316653      2184.8234    
   1725000   296.17283     -4.4650136      0              57.515719      2143.3655    
   1726000   302.70141     -4.8742219      0              58.472761      2177.5003    
   1727000   299.1166      -3.3042574      0              59.292525      2151.3549    
   1728000   298.91763     -5.1451693      0              57.409973      2082.1024    
   1729000   294.88975     -4.8990233      0              56.813195      2088.5028    
   1730000   300.18507     -5.7772389      0              57.043144      2051.1757    
   1731000   296.03083     -5.7348405      0              56.216174      2021.8658    
   1732000   292.4817      -5.3073907      0              55.90089       2017.5306    
   1733000   296.05272     -4.2029381      0              57.752657      2129.5763    
   1734000   298.32461     -5.420068       0              57.010973      2089.0594    
   1735000   301.49962     -4.6306379      0              58.464844      2140.9299    
   1736000   297.59013     -5.1210031      0              57.15633       2154.5948    
   1737000   297.48033     -3.3076148      0              58.94674       2058.9851    
   1738000   300.06279     -5.303651       0              57.491142      2108.068     
   1739000   302.44628     -3.1388022      0              60.154788      2192.4232    
   1740000   298.79369     -6.7272449      0              55.801961      1951.4033    
   1741000   295.07993     -5.2387843      0              56.513234      2073.4124    
   1742000   301.48392     -4.290474       0              58.801721      2074.1943    
   1743000   303.27525     -2.6940686      0              60.773003      2200.2502    
   1744000   305.08695     -3.9275025      0              59.918707      2098.6742    
   1745000   293.5802      -4.5697705      0              56.868397      2117.5538    
   1746000   298.1946      -5.0514026      0              57.35243       2087.4868    
   1747000   298.88192     -5.5393355      0              57.008333      2013.6706    
   1748000   299.22667     -3.2106533      0              59.409162      2113.0492    
   1749000   290.6831      -4.3125834      0              56.519302      2050.0456    
   1750000   307.41224     -5.0175008      0              59.315328      2026.4368    
   1751000   286.33666     -3.4819805      0              56.440315      2079.2726    
   1752000   297.20559     -3.8724195      0              58.324441      2135.6363    
   1753000   299.77263     -3.5113068      0              59.222764      2141.3395    
   1754000   289.83707     -4.6304741      0              56.024361      1972.7933    
   1755000   300.4382      -5.1245638      0              57.748791      1995.699     
   1756000   291.52588     -4.4512398      0              56.557015      2112.8683    
   1757000   294.02196     -4.9690644      0              56.56155       2040.1027    
   1758000   299.56693     -5.337081       0              57.353941      2000.0113    
   1759000   299.16842     -4.8191201      0              57.788505      2092.4064    
   1760000   294.61218     -5.4904906      0              56.163641      2114.2536    
   1761000   313.18222     -4.6076743      0              60.932649      2022.07      
   1762000   295.70556     -5.7865727      0              56.096373      2056.29      
   1763000   302.40364     -4.4300209      0              58.854647      2099.5071    
   1764000   295.95854     -4.7232705      0              57.212618      2108.86      
   1765000   300.93592     -5.6302509      0              57.347264      2109.1021    
   1766000   307.38542     -4.8418995      0              59.485316      2156.2711    
   1767000   312.19836     -4.3518397      0              60.98259       2187.9229    
   1768000   304.50433     -4.9400366      0              58.784248      2061.1923    
   1769000   307.29171     -4.1628447      0              60.14476       2057.258     
   1770000   319.4752      -4.6317057      0              62.225564      2116.0442    
   1771000   302.38247     -4.6081539      0              58.672084      2112.1587    
   1772000   291.64106     -3.4148482      0              57.61751       2161.0077    
   1773000   296.72031     -5.1495488      0              56.945755      2072.7329    
   1774000   307.62594     -5.2504062      0              59.127143      2049.8315    
   1775000   302.25863     -5.6036207      0              57.6507        2110.4239    
   1776000   297.54694     -3.2920703      0              58.976226      2220.2698    
   1777000   302.64363     -4.3487537      0              58.986138      2085.1467    
   1778000   298.04537     -5.359613       0              57.012989      2047.4561    
   1779000   305.61496     -3.328877       0              60.62783       2087.5953    
   1780000   299.09097     -3.9698661      0              58.621553      2040.7772    
   1781000   296.0791      -4.783868       0              57.177248      2123.0989    
   1782000   296.46203     -5.0371572      0              57.004097      2116.5621    
   1783000   297.21412     -5.6777696      0              56.520876      2101.9801    
   1784000   297.88679     -5.3343062      0              57.00511       2017.9312    
   1785000   295.20428     -6.5232458      0              55.254796      2007.9242    
   1786000   301.36875     -4.7228207      0              58.345273      2178.4582    
   1787000   295.18839     -6.3371713      0              55.437545      1993.9872    
   1788000   307.06406     -4.5129587      0              59.747004      2118.5674    
   1789000   300.93504     -5.6399616      0              57.337368      2108.6177    
   1790000   303.08822     -5.0596175      0              58.368314      2177.1063    
   1791000   296.81811     -5.3164364      0              56.799334      2103.4121    
   1792000   298.30084     -5.2738729      0              57.152192      2097.9346    
   1793000   303.83289     -4.7734777      0              58.810292      2035.82      
   1794000   313.1383      -5.9396739      0              59.59146       2074.9249    
   1795000   296.38601     -4.8619449      0              57.1634        1969.7037    
   1796000   297.29282     -4.1151527      0              58.099961      2133.6726    
   1797000   300.44701     -4.7997636      0              58.075436      2068.7713    
   1798000   307.21138     -3.5789308      0              60.711863      2057.3748    
   1799000   313.83412     -3.4887436      0              62.188005      2212.3603    
   1800000   300.64578     -3.9277766      0              58.989019      2185.9037    
   1801000   295.44076     -3.6665089      0              58.161021      2109.8112    
   1802000   291.19032     -4.1232734      0              56.814758      2097.9495    
   1803000   297.90165     -5.691502       0              56.651025      2037.1556    
   1804000   300.77093     -5.8930349      0              57.049953      2012.3483    
   1805000   306.44486     -4.8861016      0              59.244281      2156.0858    
   1806000   297.8616      -4.2547595      0              58.079386      2150.8782    
   1807000   297.64139     -4.3779428      0              57.910119      2168.0773    
   1808000   303.65887     -5.4586276      0              58.088724      2113.8882    
   1809000   286.89598     -5.7290104      0              54.310335      2016.3946    
   1810000   300.43548     -4.386088       0              58.486698      2104.9133    
   1811000   302.14564     -4.9948148      0              58.235861      2002.6566    
   1812000   297.96353     -4.972769       0              57.382707      2099.951     
   1813000   301.85034     -3.2648181      0              59.904059      2203.4084    
   1814000   297.65779     -3.6003635      0              58.69113       2144.9161    
   1815000   293.66758     -5.3505407      0              56.105912      2046.6926    
   1816000   304.966       -4.9917529      0              58.829145      2108.0602    
   1817000   298.40915     -3.5944831      0              58.854249      2159.8727    
   1818000   305.50434     -3.5731676      0              60.36039       2145.2694    
   1819000   302.97738     -4.9235853      0              58.481149      2089.6559    
   1820000   302.56216     -5.3684974      0              57.949343      2159.3847    
   1821000   304.36882     -4.0616242      0              59.634301      2148.5392    
   1822000   302.14607     -5.2605767      0              57.970189      2028.7747    
   1823000   314.10878     -4.8798683      0              60.85436       2013.0041    
   1824000   292.29963     -3.462688       0              57.707491      2097.1895    
   1825000   296.52567     -4.484043       0              57.570529      2057.3961    
   1826000   315.62014     -3.6653196      0              62.385194      2188.7437    
   1827000   299.76947     -5.1153685      0              57.618041      2058.7582    
   1828000   304.68809     -4.7203687      0              59.04237       2059.4363    
   1829000   287.66141     -5.0952535      0              55.104274      2135.588     
   1830000   300.7222      -4.2865241      0              58.646264      2078.1562    
   1831000   304.08637     -4.0160107      0              59.620805      2184.7637    
   1832000   293.13312     -4.2207383      0              57.123866      2022.8943    
   1833000   300.48189     -5.3025546      0              57.579943      2115.1425    
   1834000   292.38724     -4.5909753      0              56.597539      1992.2483    
   1835000   297.53753     -4.3650101      0              57.901316      2028.8177    
   1836000   297.71762     -4.7741665      0              57.529848      2095.7151    
   1837000   296.68187     -3.7834366      0              58.303823      2078.4771    
   1838000   297.35386     -3.9487032      0              58.279186      2205.7778    
   1839000   293.55991     -4.7941559      0              56.639766      2134.2935    
   1840000   299.16699     -5.0170283      0              57.590299      2095.4421    
   1841000   297.89174     -4.658173       0              57.68228       2037.2484    
   1842000   298.87536     -3.3275877      0              59.21871       2171.6888    
   1843000   287.14927     -6.0930575      0              53.999294      2152.1695    
   1844000   290.75966     -4.1376786      0              56.710228      2059.1087    
   1845000   307.31115     -4.7050536      0              59.60662       2075.7967    
   1846000   295.26757     -4.6412535      0              57.150034      2044.3672    
   1847000   309.62433     -4.309154       0              60.486602      2105.718     
   1848000   303.16082     -4.0413166      0              59.401807      2136.5849    
   1849000   297.41537     -4.3180265      0              57.922735      2113.2757    
   1850000   291.18827     -6.3444599      0              54.593144      2117.0961    
   1851000   298.26167     -4.1695511      0              58.248316      2127.4275    
   1852000   289.96217     -4.7002691      0              55.980745      2038.3049    
   1853000   306.35248     -4.1895975      0              59.921452      2175.3687    
   1854000   298.5409      -6.1114926      0              56.36481       2063.0764    
   1855000   294.57979     -4.8752631      0              56.77209       2117.174     
   1856000   290.43088     -4.8136344      0              55.965468      1994.5103    
   1857000   291.59144     -4.7085789      0              56.313396      2071.7015    
   1858000   304.34298     -3.5199685      0              60.170548      2147.2266    
   1859000   306.00287     -3.9820649      0              60.05582       2160.5315    
   1860000   300.21546     -4.7667449      0              58.059996      2165.3475    
   1861000   302.08681     -4.5225408      0              58.695823      2138.7558    
   1862000   289.84253     -4.119073       0              56.536904      2094.2418    
   1863000   300.47428     -5.568292       0              57.312614      2082.4291    
   1864000   299.28325     -3.3545552      0              59.277101      2078.5802    
   1865000   304.94954     -4.4776933      0              59.33976       2138.8496    
   1866000   307.81774     -5.6933924      0              58.724295      2076.1516    
   1867000   302.24256     -6.2595963      0              56.991362      1920.9074    
   1868000   302.68187     -4.1438324      0              59.199061      2079.7089    
   1869000   302.93266     -4.0569187      0              59.338457      2164.8897    
   1870000   307.30907     -3.5203809      0              60.790856      2197.6689    
   1871000   294.30234     -5.3477265      0              56.241564      2087.6157    
   1872000   290.89412     -4.5537521      0              56.322293      2034.6805    
   1873000   294.30834     -5.2207152      0              56.369832      1978.208     
   1874000   303.5906      -5.8141308      0              57.718934      2097.802     
   1875000   305.09523     -5.4007835      0              58.447158      2077.5088    
   1876000   308.42712     -3.9028841      0              60.64233       2077.6895    
   1877000   306.03232     -2.555631       0              61.488418      2168.9541    
   1878000   305.26926     -3.7681427      0              60.116219      2096.3028    
   1879000   288.74714     -5.2633186      0              55.163422      1943.6308    
   1880000   297.92133     -6.238221       0              56.108425      2071.3113    
   1881000   301.67564     -3.153443       0              59.978874      2183.3102    
   1882000   302.15827     -6.8186967      0              56.414622      2003.2463    
   1883000   308.75979     -5.5623106      0              59.052521      2092.7028    
   1884000   292.75453     -6.053721       0              55.211656      2031.1157    
   1885000   307.08041     -5.3579872      0              58.905399      2108.1383    
   1886000   306.2032      -4.3925041      0              59.687305      2122.3663    
   1887000   293.73957     -5.4711007      0              56.000418      2028.4685    
   1888000   301.58266     -4.2679127      0              58.844947      2166.6738    
   1889000   298.62811     -3.7410449      0              58.753508      2116.4007    
   1890000   306.32325     -4.236148       0              59.868785      2010.6636    
   1891000   304.22243     -2.8975984      0              60.767692      2188.697     
   1892000   302.78583     -3.9752185      0              59.389431      2126.0906    
   1893000   298.90228     -6.2238291      0              56.328101      2082.2552    
   1894000   302.12485     -5.1691832      0              58.057141      2081.6943    
   1895000   294.68747     -5.6709047      0              55.998983      1942.2068    
   1896000   298.31836     -3.8133555      0              58.616376      2225.0414    
   1897000   289.05        -4.2305277      0              56.259594      2211.0446    
   1898000   296.23258     -5.0183558      0              56.97488       2074.4639    
   1899000   295.79876     -2.1546392      0              59.747811      2177.5597    
   1900000   307.67414     -6.4651629      0              57.922474      2119.1155    
   1901000   297.10791     -4.7277267      0              57.448692      2178.4235    
   1902000   296.05342     -3.5438711      0              58.411872      2149.0552    
   1903000   296.84617     -4.932669       0              57.188975      2056.7485    
   1904000   294.75102     -5.8371612      0              55.846026      2150.5553    
   1905000   300.78082     -5.8853573      0              57.0597        2021.2886    
   1906000   305.75378     -5.0769493      0              58.908809      2117.2029    
   1907000   291.29308     -5.1718796      0              55.787657      1991.4826    
   1908000   293.18417     -6.0368514      0              55.318438      2065.424     
   1909000   296.89975     -5.4868248      0              56.646032      2007.6321    
   1910000   301.31021     -4.8865501      0              58.169292      2055.2106    
   1911000   300.38055     -4.7140227      0              58.147269      2008.4837    
   1912000   298.69744     -6.4671281      0              56.041934      2105.6106    
   1913000   300.51215     -3.3578749      0              59.530957      2103.3813    
   1914000   298.87545     -4.4831494      0              58.063166      2049.6979    
   1915000   302.09593     -5.4470844      0              57.773188      2145.4544    
   1916000   298.51225     -3.8480416      0              58.622267      2024.3015    
   1917000   298.75336     -5.0197488      0              57.501016      2017.061     
   1918000   296.62145     -4.1235187      0              57.951097      2113.2238    
   1919000   312.16042     -4.3889453      0              60.937545      2085.8873    
   1920000   300.31631     -4.8953314      0              57.952516      2074.626     
   1921000   303.47588     -4.7724727      0              58.736585      2126.8401    
   1922000   301.27006     -5.9596355      0              57.087805      1976.6063    
   1923000   305.03181     -3.0621575      0              60.772513      2223.2029    
   1924000   307.42605     -3.4263838      0              60.909334      2112.0349    
   1925000   311.27501     -4.5593776      0              60.581821      2048.6006    
   1926000   299.94099     -5.4138742      0              57.355429      2019.3511    
   1927000   298.91163     -3.9218895      0              58.631998      2060.4122    
   1928000   307.12653     -4.3036306      0              59.969406      2134.4825    
   1929000   302.74443     -2.8943668      0              60.461619      2135.2472    
   1930000   291.91912     -4.3703402      0              56.72021       2082.7084    
   1931000   294.63129     -6.1684089      0              55.489722      2003.3279    
   1932000   295.46515     -5.211311       0              56.621324      1969.2718    
   1933000   288.23584     -4.7478501      0              55.571892      1970.7175    
   1934000   303.14228     -4.4731382      0              58.966105      2068.9752    
   1935000   293.58965     -3.5639366      0              57.876207      2181.1353    
   1936000   300.90316     -3.2750814      0              59.695577      2172.5776    
   1937000   299.3547      -5.4060197      0              57.24059       2058.8462    
   1938000   302.02378     -6.122839       0              57.082334      2096.1777    
   1939000   304.86552     -3.5955218      0              60.204349      2121.7486    
   1940000   299.92218     -4.4129818      0              58.352386      2106.7196    
   1941000   303.935       -3.9949409      0              59.610198      2055.9641    
   1942000   312.79132     -5.2990259      0              60.159495      2116.0477    
   1943000   302.35325     -4.8792699      0              58.394852      2121.8738    
   1944000   306.01876     -3.7749114      0              60.2663        2136.9371    
   1945000   301.50594     -4.7129746      0              58.38383       2025.1589    
   1946000   295.32768     -4.421234       0              57.382632      2081.018     
   1947000   295.53661     -6.484771       0              55.362819      2107.8654    
   1948000   292.22127     -4.8802964      0              56.273484      2062.8421    
   1949000   295.00867     -6.0468214      0              55.690284      1973.0339    
   1950000   300.38371     -3.4101789      0              59.451773      2122.6491    
   1951000   298.81409     -4.801856       0              57.731618      2037.7566    
   1952000   302.04312     -5.971856       0              57.237365      2101.8005    
   1953000   290.52449     -3.0381911      0              57.7605        2133.4636    
   1954000   303.98931     -3.7560754      0              59.860429      2208.2744    
   1955000   299.77367     -4.8017593      0              57.932528      2185.8244    
   1956000   294.21503     -3.7829622      0              57.788057      2187.5276    
   1957000   291.09033     -4.2457028      0              56.671404      2084.222     
   1958000   303.22344     -4.7357759      0              58.720452      2077.391     
   1959000   289.06525     -3.8661834      0              56.627131      2192.0714    
   1960000   296.75726     -4.7320304      0              57.371007      2099.0682    
   1961000   303.02826     -4.072665       0              59.342718      2146.3273    
   1962000   311.31489     -4.3004085      0              60.849135      2170.7578    
   1963000   303.16133     -4.4014125      0              59.041819      2102.1025    
   1964000   310.27885     -4.1150299      0              60.817699      2079.5076    
   1965000   293.9485      -4.939676       0              56.575566      2041.1933    
   1966000   306.41383     -5.2316378      0              58.89225       2093.7937    
   1967000   298.74814     -3.8957175      0              58.623956      2171.9662    
   1968000   301.75716     -2.7047631      0              60.444615      2250.1574    
   1969000   290.50332     -3.1873992      0              57.606862      2076.2896    
   1970000   301.40435     -4.3808891      0              58.694654      2064.5112    
   1971000   295.87833     -5.2978991      0              56.621202      2022.6742    
   1972000   304.14111     -5.0874569      0              58.560815      2030.5008    
   1973000   297.49362     -3.811592       0              58.445545      2005.0045    
   1974000   298.21892     -4.7335651      0              57.675358      2132.5156    
   1975000   296.18418     -3.5251987      0              58.457909      2069.0826    
   1976000   302.01977     -3.897567       0              59.306766      2144.6988    
   1977000   300.06936     -5.2293309      0              57.566836      2055.8643    
   1978000   306.68786     -4.1968916      0              59.984344      2161.9962    
   1979000   299.07514     -4.7896194      0              57.798487      2035.1193    
   1980000   292.85147     -3.7486701      0              57.536994      2112.4764    
   1981000   300.74184     -4.7746093      0              58.162289      2009.8261    
   1982000   300.29404     -4.2083954      0              58.634791      2092.9461    
   1983000   296.52421     -4.3989883      0              57.655277      2021.4325    
   1984000   311.67003     -3.2978029      0              61.926061      2201.2519    
   1985000   296.37149     -3.1100857      0              58.912221      2112.3055    
   1986000   311.99308     -3.8052083      0              61.486263      2134.5094    
   1987000   288.39378     -4.0262154      0              56.326578      2046.4374    
   1988000   302.57229     -6.2629766      0              57.056984      2073.2098    
   1989000   304.77472     -5.1838839      0              58.596985      2009.3615    
   1990000   292.0536      -3.5170874      0              57.601604      2040.6124    
   1991000   303.59729     -3.9585878      0              59.575878      2253.0297    
   1992000   306.40076     -6.737908       0              57.383245      2000.0309    
   1993000   302.43808     -5.2512652      0              58.04061       2082.397     
   1994000   314.52329     -4.1258139      0              61.695159      2163.2039    
   1995000   305.56168     -3.2491389      0              60.696419      2129.5479    
   1996000   303.53233     -6.2502635      0              57.270606      2080.1032    
   1997000   296.51663     -4.8863369      0              57.166342      2055.3766    
   1998000   303.68518     -4.533227       0              59.01963       2092.768     
   1999000   289.95013     -4.3062639      0              56.372231      2073.4113    
   2000000   292.50662     -3.4558339      0              57.757662      2062.2075    
   2000101   303.47517     -4.0107088      0              59.4982        2051.7358    
Loop time of 14081.1 on 16 procs for 2000000 steps with 1620 atoms

Performance: 6.136 ns/day, 3.911 hours/ns, 142.034 timesteps/s
99.9% CPU use with 16 MPI tasks x 1 OpenMP threads

MPI task timing breakdown:
Section |  min time  |  avg time  |  max time  |%varavg| %total
---------------------------------------------------------------
Pair    | 11024      | 11965      | 12910      | 615.0 | 84.97
Bond    | 1.5569     | 1.6134     | 1.689      |   2.6 |  0.01
Neigh   | 16.183     | 16.694     | 17.208     |   9.8 |  0.12
Comm    | 1098.6     | 2044.2     | 2985.4     |1488.6 | 14.52
Output  | 1.11       | 1.1106     | 1.1123     |   0.0 |  0.01
Modify  | 27.957     | 28.316     | 28.643     |   3.2 |  0.20
Other   |            | 24.51      |            |       |  0.17

Nlocal:         101.25 ave         110 max          96 min
Histogram: 3 1 4 1 1 2 1 2 0 1
Nghost:        5055.19 ave        5103 max        5014 min
Histogram: 1 1 4 1 2 2 2 0 1 2
Neighs:        51668.8 ave       60048 max       47188 min
Histogram: 4 2 2 2 2 0 2 0 1 1

Total # of neighbors = 826700
Ave neighs/atom = 510.30864
Ave special neighs/atom = 0
Neighbor list builds = 10404
Dangerous builds = 0
comm_modify cutoff 27.58
compute myRDF all rdf 1129 cutoff 22.58
fix 2 all ave/time 1 1 1 c_myRDF[*] file ljg2_nvt_42rdf.rdf mode vector
run 0 pre yes post no
Generated 0 of 0 mixed pair_coeff terms from geometric mixing rule
WARNING: Compute rdf cutoff less than neighbor cutoff - forcing a needless neighbor list build (src/compute_rdf.cpp:179)
Neighbor list info ...
  update every 1 steps, delay 0 steps, check yes
  max neighbors/atom: 200000, page size: 2000000000
  master list distance cutoff = 27
  ghost atom cutoff = 27.58
  binsize = 13.5, bins = 4 5 4
  4 neighbor lists, perpetual/occasional/extra = 3 1 0
  (1) pair lj/cut, perpetual
      attributes: half, newton on
      pair build: half/bin/newton
      stencil: half/bin/3d
      bin: standard
  (2) pair gauss/cut, perpetual, copy from (1)
      attributes: half, newton on
      pair build: copy
      stencil: none
      bin: none
  (3) pair gauss/cut, perpetual, copy from (1)
      attributes: half, newton on
      pair build: copy
      stencil: none
      bin: none
  (4) compute rdf, occasional
      attributes: half, newton on, cut 24.58
      pair build: half/bin/newton
      stencil: half/bin/3d
      bin: standard
Per MPI rank memory allocation (min/avg/max) = 3.053e+04 | 3.053e+04 | 3.053e+04 Mbytes
   Step          Temp          E_pair         E_mol          TotEng         Press     
   2000101   303.47517     -4.0107088      0              59.4982        2051.7358    
Loop time of 5.11275e-06 on 16 procs for 0 steps with 1620 atoms

uncompute myRDF
unfix 2
write_data ljg2_nvt_42/ca_md.data nocoeff nofix
System init for write_data ...
Generated 0 of 0 mixed pair_coeff terms from geometric mixing rule
Neighbor list info ...
  update every 1 steps, delay 0 steps, check yes
  max neighbors/atom: 200000, page size: 2000000000
  master list distance cutoff = 27
  ghost atom cutoff = 27.58
  binsize = 13.5, bins = 4 5 4
  3 neighbor lists, perpetual/occasional/extra = 3 0 0
  (1) pair lj/cut, perpetual
      attributes: half, newton on
      pair build: half/bin/newton
      stencil: half/bin/3d
      bin: standard
  (2) pair gauss/cut, perpetual, copy from (1)
      attributes: half, newton on
      pair build: copy
      stencil: none
      bin: none
  (3) pair gauss/cut, perpetual, copy from (1)
      attributes: half, newton on
      pair build: copy
      stencil: none
      bin: none
Total wall time: 3:54:42
