region box block 0 52.794504272175 0 54.794296100667 0 45.195295323908
units metal
dimension 3
boundary p p p
atom_style full
create_box 1 box
Created orthogonal box = (0 0 0) to (52.794504 54.794296 45.195295)
  2 by 4 by 2 MPI processor grid
create_atoms 1 random 1620 44 box
Created 1620 atoms
  using lattice units in orthogonal box = (0 0 0) to (52.794504 54.794296 45.195295)
  create_atoms CPU = 0.003 seconds
mass 1 40.078
pair_style hybrid/overlay lj/cut 25 gauss/cut 25 gauss/cut 25
pair_coeff 1 1 lj/cut 0.009507177838705264 3.7584971993521488
pair_coeff 1 1 gauss/cut 1 -0.0597999248039827 5.991246456844763 0.601172550524922
pair_coeff 1 1 gauss/cut 2 0.0726183915985775 5.919659952808235 0.9307156951487607
run 1
WARNING: No fixes with time integration, atoms won't move (src/verlet.cpp:60)
Generated 0 of 0 mixed pair_coeff terms from geometric mixing rule
Neighbor list info ...
  update every 1 steps, delay 10 steps, check yes
  max neighbors/atom: 2000, page size: 100000
  master list distance cutoff = 27
  ghost atom cutoff = 27
  binsize = 13.5, bins = 4 5 4
  3 neighbor lists, perpetual/occasional/extra = 3 0 0
  (1) pair lj/cut, perpetual
      attributes: half, newton on
      pair build: half/bin/newton
      stencil: half/bin/3d
      bin: standard
  (2) pair gauss/cut, perpetual, copy from (1)
      attributes: half, newton on
      pair build: copy
      stencil: none
      bin: none
  (3) pair gauss/cut, perpetual, copy from (1)
      attributes: half, newton on
      pair build: copy
      stencil: none
      bin: none
Per MPI rank memory allocation (min/avg/max) = 6.988 | 6.995 | 7.006 Mbytes
   Step          Temp          E_pair         E_mol          TotEng         Press     
         0   0              7.1183986e+12  0              7.1183986e+12  3.4892765e+14
         1   0              7.1183986e+12  0              7.1183986e+12  3.4892765e+14
Loop time of 0.0136753 on 16 procs for 1 steps with 1620 atoms

Performance: 6.318 ns/day, 3.799 hours/ns, 73.125 timesteps/s
98.7% CPU use with 16 MPI tasks x 1 OpenMP threads

MPI task timing breakdown:
Section |  min time  |  avg time  |  max time  |%varavg| %total
---------------------------------------------------------------
Pair    | 0.0065717  | 0.0085446  | 0.013282   |   1.6 | 62.48
Bond    | 8.88e-07   | 9.9181e-07 | 1.322e-06  |   0.0 |  0.01
Neigh   | 0          | 0          | 0          |   0.0 |  0.00
Comm    | 0.00030823 | 0.0050391  | 0.0070015  |   2.0 | 36.85
Output  | 4.277e-05  | 5.0819e-05 | 5.7068e-05 |   0.0 |  0.37
Modify  | 1.407e-06  | 1.6229e-06 | 2.261e-06  |   0.0 |  0.01
Other   |            | 3.815e-05  |            |       |  0.28

Nlocal:         101.25 ave         119 max          88 min
Histogram: 2 1 3 3 2 0 1 2 1 1
Nghost:        5058.06 ave        5198 max        4954 min
Histogram: 2 1 2 3 3 1 2 1 0 1
Neighs:        51644.1 ave       62556 max       41292 min
Histogram: 1 1 1 2 3 4 2 0 1 1

Total # of neighbors = 826306
Ave neighs/atom = 510.06543
Ave special neighs/atom = 0
Neighbor list builds = 0
Dangerous builds = 0
thermo 1000
neighbor 2.0 bin
neigh_modify every 1 delay 0 check yes one 200000 page 2000000000
minimize 0.0 1.0e-8 100 1000
Generated 0 of 0 mixed pair_coeff terms from geometric mixing rule
Neighbor list info ...
  update every 1 steps, delay 0 steps, check yes
  max neighbors/atom: 200000, page size: 2000000000
  master list distance cutoff = 27
  ghost atom cutoff = 27
  binsize = 13.5, bins = 4 5 4
  3 neighbor lists, perpetual/occasional/extra = 3 0 0
  (1) pair lj/cut, perpetual
      attributes: half, newton on
      pair build: half/bin/newton
      stencil: half/bin/3d
      bin: standard
  (2) pair gauss/cut, perpetual, copy from (1)
      attributes: half, newton on
      pair build: copy
      stencil: none
      bin: none
  (3) pair gauss/cut, perpetual, copy from (1)
      attributes: half, newton on
      pair build: copy
      stencil: none
      bin: none
Per MPI rank memory allocation (min/avg/max) = 2.29e+04 | 2.29e+04 | 2.29e+04 Mbytes
   Step          Temp          E_pair         E_mol          TotEng         Press     
         1   0              7.1183986e+12  0              7.1183986e+12  3.4892765e+14
       101   0             -48.568749      0             -48.568749      776.56345    
Loop time of 1.12358 on 16 procs for 100 steps with 1620 atoms

100.0% CPU use with 16 MPI tasks x 1 OpenMP threads

Minimization stats:
  Stopping criterion = max iterations
  Energy initial, next-to-last, final = 
       7118398637169.3  -48.3523372142987  -48.5687487702031
  Force two-norm initial, final = 4.1540911e+14 0.44581145
  Force max component initial, final = 1.7832709e+14 0.060396351
  Final line search alpha, max atom move = 1 0.060396351
  Iterations, force evaluations = 100 119

MPI task timing breakdown:
Section |  min time  |  avg time  |  max time  |%varavg| %total
---------------------------------------------------------------
Pair    | 0.75468    | 0.91324    | 1.0696     |   8.2 | 81.28
Bond    | 9.7916e-05 | 0.00010493 | 0.0001096  |   0.0 |  0.01
Neigh   | 0.0086383  | 0.010068   | 0.010978   |   0.7 |  0.90
Comm    | 0.03817    | 0.19541    | 0.35538    |  17.8 | 17.39
Output  | 5.3881e-05 | 5.5829e-05 | 5.8812e-05 |   0.0 |  0.00
Modify  | 0          | 0          | 0          |   0.0 |  0.00
Other   |            | 0.004696   |            |       |  0.42

Nlocal:         101.25 ave         120 max          92 min
Histogram: 3 3 2 3 2 1 1 0 0 1
Nghost:        5060.25 ave        5148 max        4970 min
Histogram: 1 0 1 3 3 2 4 1 0 1
Neighs:        51641.4 ave       60678 max       43332 min
Histogram: 2 1 2 1 3 2 0 2 2 1

Total # of neighbors = 826262
Ave neighs/atom = 510.03827
Ave special neighs/atom = 0
Neighbor list builds = 6
Dangerous builds = 0
timestep 0.0005
fix 1 all nvt temp 300.0 300.0 $(100.0*dt)
fix 1 all nvt temp 300.0 300.0 0.050000000000000002776
fix removeMomentum all momentum 1 linear 1 1 1
dump 1 all custom 1000 ljg2_nvt_44/ca.traj id mol type mass x y z
dump_modify 1 sort id
run 2000000
Generated 0 of 0 mixed pair_coeff terms from geometric mixing rule
Per MPI rank memory allocation (min/avg/max) = 2.289e+04 | 2.289e+04 | 2.289e+04 Mbytes
   Step          Temp          E_pair         E_mol          TotEng         Press     
       101   0             -48.568749      0             -48.568749      776.56345    
      1000   162.611       -46.343843      0             -12.313886      1245.0074    
      2000   288.46915     -12.652951      0              47.715615      1832.0963    
      3000   307.8843      -8.1221853      0              56.309433      1928.0727    
      4000   304.74198     -5.0336863      0              58.740331      2108.3833    
      5000   299.19765     -5.3371964      0              57.276546      2089.5063    
      6000   303.71169     -5.0654988      0              58.492908      2202.691     
      7000   297.93521     -5.35465        0              56.9949        2021.5674    
      8000   291.61696     -4.5342141      0              56.493102      2045.0503    
      9000   303.85321     -5.029495       0              58.558526      2146.1015    
     10000   293.81176     -4.5590875      0              56.927539      2077.8693    
     11000   304.54083     -4.8777437      0              58.854178      2023.5376    
     12000   301.62052     -4.591113       0              58.52967       2179.5379    
     13000   304.21305     -3.8703704      0              59.792955      2157.4147    
     14000   296.9648      -4.5468249      0              57.599645      2011.5897    
     15000   299.46444     -4.414409       0              58.255165      2206.4334    
     16000   305.25884     -6.2293417      0              57.652839      2047.3867    
     17000   296.70398     -4.4764228      0              57.615464      2078.7953    
     18000   301.87182     -5.1480682      0              58.025304      2136.5886    
     19000   301.73744     -4.6175222      0              58.527728      1979.7551    
     20000   296.91734     -4.2794005      0              57.857137      2047.8115    
     21000   302.16752     -4.2694455      0              58.965809      2226.9834    
     22000   296.05508     -5.2275933      0              56.728496      2035.5485    
     23000   296.53261     -3.9508216      0              58.105203      2155.4401    
     24000   288.98324     -4.3448954      0              56.131257      2105.8515    
     25000   296.22269     -3.9961556      0              57.995011      2113.5879    
     26000   301.96801     -4.1801985      0              59.013304      2108.1824    
     27000   297.05946     -6.0463836      0              56.119895      2166.5402    
     28000   294.00212     -4.7390261      0              56.787436      2033.0501    
     29000   304.97811     -4.5318822      0              59.291551      2014.5274    
     30000   285.00588     -5.339977       0              54.303823      2068.4612    
     31000   308.77353     -4.7225683      0              59.895141      2178.14      
     32000   292.74059     -5.326108       0              55.936352      1957.3994    
     33000   296.61671     -4.8712782      0              57.202347      1997.5112    
     34000   286.35583     -3.6963231      0              56.229983      2102.5071    
     35000   306.24077     -4.94197        0              59.145701      2156.4101    
     36000   293.70477     -5.415752       0              56.048484      2057.8215    
     37000   303.35363     -5.9171254      0              57.566348      2081.1904    
     38000   298.87009     -3.6059706      0              58.939223      2143.2039    
     39000   300.95899     -5.0772563      0              57.905085      2055.7046    
     40000   294.13359     -6.1174087      0              55.436568      2008.3809    
     41000   300.33486     -4.1300961      0              58.721633      2114.9852    
     42000   301.22419     -3.382798       0              59.655044      2154.5509    
     43000   309.29462     -4.0966295      0              60.630129      2198.5031    
     44000   296.47406     -2.2952066      0              59.748565      2046.6096    
     45000   298.77158     -4.593027       0              57.931552      2171.2148    
     46000   301.97753     -3.5853663      0              59.610129      2128.7277    
     47000   302.21516     -5.9045448      0              57.340678      2076.7863    
     48000   305.9885      -3.9818362      0              60.053043      2032.9559    
     49000   304.00309     -4.7249127      0              58.894475      2117.8862    
     50000   298.64843     -5.0501304      0              57.448677      2126.1428    
     51000   307.56566     -3.3417422      0              61.023191      2174.7892    
     52000   307.25931     -3.8302031      0              60.47062       2067.1985    
     53000   292.38805     -5.0372299      0              56.151453      2031.4691    
     54000   305.77484     -6.2160285      0              57.774137      1979.4236    
     55000   306.52798     -3.578731       0              60.569046      2173.1073    
     56000   298.19384     -4.5798729      0              57.823801      2131.9141    
     57000   307.02742     -4.4539695      0              59.798327      2091.8372    
     58000   293.98699     -5.2484742      0              56.274823      2170.5884    
     59000   308.41066     -4.264609       0              60.27716       2211.6698    
     60000   297.25007     -6.504986       0              55.701183      1997.8005    
     61000   298.71206     -5.7335018      0              56.778621      1963.515     
     62000   300.73655     -4.5258035      0              58.409989      2075.7082    
     63000   295.90971     -4.8437547      0              57.081915      2158.2769    
     64000   311.85427     -4.6765247      0              60.585897      2096.8798    
     65000   295.34098     -3.8916646      0              57.914985      2185.5547    
     66000   301.50202     -4.3501389      0              58.745845      2091.9193    
     67000   297.82423     -3.3198374      0              59.006488      2107.567     
     68000   303.4791      -4.3997433      0              59.109988      2099.9898    
     69000   300.98104     -3.6355805      0              59.351376      2220.9445    
     70000   302.45807     -2.6713565      0              60.624702      2180.7022    
     71000   285.34175     -4.810678       0              54.90341       2044.485     
     72000   294.97884     -2.3679286      0              59.362935      2228.8083    
     73000   295.63101     -3.4702417      0              58.397103      2168.503     
     74000   297.26612     -6.8319341      0              55.377593      1966.5278    
     75000   307.3647      -4.2443773      0              60.078502      2192.7126    
     76000   304.28649     -5.0809914      0              58.597704      2035.18      
     77000   289.02332     -4.1207194      0              56.363819      2152.7731    
     78000   298.83548     -3.1882777      0              59.349673      2267.0112    
     79000   299.75648     -4.9445345      0              57.786157      2046.4985    
     80000   307.73442     -6.0334448      0              58.366806      2086.1452    
     81000   310.2109      -3.5062597      0              61.412251      2183.6028    
     82000   308.33332     -4.4268545      0              60.098731      2157.1411    
     83000   297.51104     -4.9428191      0              57.317963      2094.798     
     84000   313.86112     -4.7120868      0              60.970312      2144.9879    
     85000   309.75934     -5.1494472      0              59.674563      2211.5972    
     86000   298.9745      -4.0812624      0              58.485782      2039.8776    
     87000   298.38528     -5.1702028      0              57.273534      2147.9224    
     88000   302.1232      -3.8304693      0              59.395509      2095.6508    
     89000   302.53677     -6.4365129      0              56.876014      2040.2198    
     90000   299.44587     -3.6438912      0              59.021797      2125.3207    
     91000   302.11588     -4.7870678      0              58.437379      2066.2164    
     92000   304.0442      -1.7876448      0              61.840346      2178.6304    
     93000   298.89291     -4.0482944      0              58.501675      2155.6882    
     94000   307.31428     -4.2390124      0              60.073315      2011.3443    
     95000   294.06641     -5.036793       0              56.503124      2091.2421    
     96000   306.63666     -3.8420492      0              60.328471      2115.4062    
     97000   303.04831     -3.5168163      0              59.902762      2101.7339    
     98000   289.43999     -3.4364775      0              57.135259      2173.32      
     99000   290.95776     -2.9253446      0              57.964019      2166.8776    
    100000   299.33295     -4.6852922      0              57.956764      2166.9893    
    101000   300.65457     -4.5764221      0              58.342213      2068.1242    
    102000   295.15618     -5.5864432      0              56.181533      2082.3361    
    103000   300.28223     -5.2640429      0              57.576672      2107.8045    
    104000   298.49149     -5.2194         0              57.246563      2124.6182    
    105000   286.36693     -5.4390685      0              54.489562      2086.4338    
    106000   303.89992     -5.1530557      0              58.444742      2167.9481    
    107000   294.5758      -5.9689123      0              55.677607      2062.6012    
    108000   297.33226     -6.3270947      0              55.896273      2034.8669    
    109000   297.64329     -5.3026009      0              56.985857      2131.5592    
    110000   296.73849     -6.807229       0              55.29188       2008.939     
    111000   298.43984     -5.1883438      0              57.26681       2035.4585    
    112000   295.95945     -4.8569884      0              57.079088      2135.8858    
    113000   292.83301     -3.1931852      0              58.088615      2026.2694    
    114000   309.33622     -5.0535802      0              59.681884      2064.768     
    115000   302.33878     -5.3459907      0              57.925103      1992.344     
    116000   295.25715     -3.505452       0              58.283653      2203.3582    
    117000   304.80669     -4.6414715      0              59.146087      2069.2111    
    118000   302.4027      -5.796829       0              57.487641      2141.6496    
    119000   295.71087     -3.94496        0              57.939098      2154.5409    
    120000   301.92803     -4.2906292      0              58.894505      2113.6337    
    121000   293.07182     -4.3434701      0              56.988308      2012.1374    
    122000   291.84793     -4.5605248      0              56.515125      2059.4511    
    123000   305.78325     -3.9249111      0              60.067015      2093.1284    
    124000   298.76581     -3.5366482      0              58.986722      2084.0756    
    125000   293.17838     -4.3887502      0              56.965326      2063.1985    
    126000   300.14988     -5.9316183      0              56.8814        2135.1618    
    127000   297.5116      -3.3886653      0              58.872233      2153.3476    
    128000   302.08862     -5.1483979      0              58.070345      2139.38      
    129000   299.21296     -3.6452889      0              58.971659      2160.3409    
    130000   290.67933     -4.9213653      0              55.909731      2056.9634    
    131000   299.0176      -3.9875313      0              58.588533      2110.8779    
    132000   296.83631     -5.0497444      0              57.069836      2130.7751    
    133000   294.59251     -3.5006287      0              58.149387      2144.8634    
    134000   303.42956     -4.0364033      0              59.46296       2169.4829    
    135000   307.89959     -4.0806611      0              60.354155      2195.6474    
    136000   302.09678     -5.1755666      0              58.044883      2081.2105    
    137000   285.62606     -5.3752586      0              54.398329      2190.7       
    138000   314.07141     -5.6850184      0              60.041389      2061.3786    
    139000   295.76244     -4.5188128      0              57.376037      2163.0968    
    140000   297.59251     -4.9141676      0              57.363663      2105.4574    
    141000   295.13306     -4.1602444      0              57.602893      2092.6297    
    142000   299.38846     -4.1471693      0              58.506504      2093.5152    
    143000   295.32228     -3.9964194      0              57.806317      2170.3706    
    144000   296.49616     -4.3616592      0              57.686737      2145.6382    
    145000   295.72839     -4.4540994      0              57.433623      2177.0146    
    146000   309.3707      -5.3920453      0              59.350633      2187.0627    
    147000   296.50735     -3.3966324      0              58.654105      2090.7881    
    148000   304.02759     -4.9748494      0              58.649666      2138.576     
    149000   298.69086     -4.7634534      0              57.744232      2036.7743    
    150000   301.71128     -4.0881101      0              59.051666      2166.0439    
    151000   301.78178     -5.635001       0              57.519528      2064.1438    
    152000   298.50311     -4.0571827      0              58.411212      2123.801     
    153000   303.11868     -5.5653184      0              57.868987      2109.4741    
    154000   298.64627     -5.0655726      0              57.432781      2130.7802    
    155000   298.29603     -6.36559        0              56.059469      2046.5992    
    156000   297.37646     -5.036243       0              57.196376      2065.081     
    157000   303.12361     -3.8448763      0              59.590461      2044.5848    
    158000   294.6984      -3.8759583      0              57.796216      2038.6769    
    159000   304.14928     -5.8590735      0              57.790907      2098.2809    
    160000   286.58842     -5.2024372      0              54.772544      2116.124     
    161000   301.23793     -3.2316549      0              59.809061      2062.8867    
    162000   303.65093     -4.1352177      0              59.410473      2112.7774    
    163000   297.0846      -3.8528858      0              58.318654      2086.4914    
    164000   298.9451      -5.8821749      0              56.678717      2019.6791    
    165000   291.08557     -4.6876884      0              56.228422      2157.3715    
    166000   288.22742     -5.0006938      0              55.317286      2066.1226    
    167000   300.37005     -4.0916832      0              58.76741       2090.0629    
    168000   295.75161     -4.3865808      0              57.506002      2089.4233    
    169000   301.95747     -3.8920439      0              59.299253      2137.7014    
    170000   305.0736      -4.722279       0              59.121136      2102.585     
    171000   290.56866     -4.396111       0              56.411825      2004.4976    
    172000   304.62867     -4.3838442      0              59.36646       2194.1006    
    173000   299.57798     -5.0299657      0              57.663369      2052.9683    
    174000   290.20441     -4.2567972      0              56.474911      2125.8501    
    175000   302.40067     -3.708457       0              59.575589      2152.9551    
    176000   298.19262     -5.2258697      0              57.177549      2036.3026    
    177000   289.13189     -4.3529815      0              56.154278      2149.2358    
    178000   304.95126     -4.4181343      0              59.399678      2031.1915    
    179000   296.72689     -4.5481214      0              57.548559      2142.6384    
    180000   294.42952     -3.7508701      0              57.865037      2139.2575    
    181000   292.13097     -4.2130216      0              56.921862      2017.1395    
    182000   295.57743     -4.9403573      0              56.915774      2016.5043    
    183000   297.83599     -5.0922358      0              57.236549      2063.5237    
    184000   299.5698      -2.8262046      0              59.865419      2164.9479    
    185000   297.96307     -4.3238249      0              58.031555      2208.1259    
    186000   295.69534     -5.4691961      0              56.411611      2060.4434    
    187000   287.31058     -5.7228         0              54.403309      1991.1904    
    188000   306.33424     -4.727374       0              59.379859      2017.8118    
    189000   305.95824     -4.3470268      0              59.681519      2104.6388    
    190000   309.91144     -3.8456759      0              61.010165      2194.6499    
    191000   300.03493     -6.1044334      0              56.684528      2193.1982    
    192000   299.41881     -5.534173       0              57.125853      2114.8989    
    193000   296.53409     -4.252818       0              57.803517      2149.6865    
    194000   298.1988      -2.6302179      0              59.774494      2194.5751    
    195000   307.12444     -3.6507387      0              60.62186       2043.8785    
    196000   298.8149      -3.9876013      0              58.546042      2157.6013    
    197000   285.82223     -3.3793164      0              56.435324      2071.8995    
    198000   310.79638     -3.9580372      0              61.082997      2123.3956    
    199000   300.16946     -4.9467916      0              57.870324      2045.2152    
    200000   301.14073     -4.8380202      0              58.182355      2040.0935    
    201000   294.94197     -3.8946621      0              57.828486      2106.8992    
    202000   282.40021     -3.422329       0              55.676177      2119.3422    
    203000   303.30968     -5.1997938      0              58.274482      2110.52      
    204000   293.6367      -4.7955104      0              56.654481      2062.2302    
    205000   301.69278     -4.2529831      0              58.882921      2101.9351    
    206000   293.33254     -6.0334445      0              55.352893      2118.5152    
    207000   304.16568     -5.7183206      0              57.935093      1977.9651    
    208000   293.80747     -4.4177885      0              57.06794       2045.5189    
    209000   303.28834     -5.7982414      0              57.671569      1976.4167    
    210000   293.91625     -2.9070998      0              58.601393      2153.5372    
    211000   299.46024     -3.1796013      0              59.489094      2221.9185    
    212000   290.92992     -5.415322       0              55.468216      2106.2215    
    213000   309.68043     -3.9684476      0              60.83905       2154.1107    
    214000   301.96015     -4.1282621      0              59.063595      2181.3811    
    215000   308.7704      -4.0532624      0              60.563791      2142.6309    
    216000   304.42154     -4.8579448      0              58.849014      2058.3254    
    217000   300.35222     -4.3130317      0              58.542331      2205.6061    
    218000   301.84885     -5.0686575      0              58.099908      1990.519     
    219000   300.50324     -4.6732231      0              58.213744      2055.0637    
    220000   294.6641      -4.2979712      0              57.367026      2053.1658    
    221000   307.82322     -3.935739       0              60.483096      2063.4049    
    222000   293.80491     -5.1583378      0              56.326855      2069.5553    
    223000   288.9788      -5.0279943      0              55.447227      2037.173     
    224000   309.29794     -3.7107456      0              61.016707      2100.23      
    225000   301.93291     -3.2498818      0              59.936275      2221.3367    
    226000   294.99189     -4.5148042      0              57.218789      2119.9267    
    227000   301.00023     -4.291584       0              58.699389      1996.3242    
    228000   293.64362     -4.3920037      0              57.059436      2016.503     
    229000   308.81072     -4.5015408      0              60.12395       2091.1326    
    230000   302.53153     -3.3732679      0              59.938163      2134.9023    
    231000   307.20158     -4.5358852      0              59.752857      2128.2652    
    232000   297.16055     -4.0665712      0              58.120863      2157.7217    
    233000   300.65228     -4.8530626      0              58.065093      2009.8144    
    234000   301.53848     -5.7661337      0              57.337479      2076.3549    
    235000   303.04942     -3.7170717      0              59.702739      2047.2229    
    236000   302.29881     -3.6168102      0              59.64592       2060.4295    
    237000   304.27726     -3.4441942      0              60.232569      2093.6888    
    238000   302.58667     -4.2622079      0              59.060763      2099.1766    
    239000   294.41129     -5.2048443      0              56.407246      2135.7765    
    240000   305.69809     -3.5337668      0              60.440337      2174.3819    
    241000   299.01296     -4.9529285      0              57.622163      2102.32      
    242000   302.48722     -2.9425621      0              60.359596      2096.5952    
    243000   302.0147      -4.7847116      0              58.418562      2111.3611    
    244000   307.92524     -4.5287165      0              59.911469      2048.3789    
    245000   300.33235     -3.1331668      0              59.718038      2160.5217    
    246000   309.72686     -4.7823628      0              60.034851      2262.2194    
    247000   299.4482      -4.9355294      0              57.730646      2155.637     
    248000   296.01421     -5.5824514      0              56.365086      2059.538     
    249000   292.30773     -4.5972221      0              56.574652      2070.7814    
    250000   296.14799     -3.4856887      0              58.489845      2147.705     
    251000   294.12395     -4.6570618      0              56.894897      2022.4349    
    252000   307.85538     -4.2718492      0              60.153717      2093.1309    
    253000   298.08799     -4.570103       0              57.811419      2152.0206    
    254000   302.02726     -3.9088688      0              59.297034      2195.6715    
    255000   297.93097     -4.7535793      0              57.595083      2173.9382    
    256000   294.31557     -4.7271998      0              56.864859      2095.0525    
    257000   302.80644     -3.4585954      0              59.910367      2122.8256    
    258000   308.08821     -6.1953235      0              58.278967      2095.6781    
    259000   303.99538     -3.5086429      0              60.10913       2198.8391    
    260000   298.04044     -6.8219431      0              55.549627      1989.5856    
    261000   288.86841     -3.939096       0              56.513025      2082.4933    
    262000   304.61576     -4.0814251      0              59.666177      2081.3687    
    263000   298.34678     -4.2203891      0              58.215291      2116.1384    
    264000   311.0563      -3.2524942      0              61.842935      2141.369     
    265000   299.9873      -4.6256861      0              58.15331       2134.2538    
    266000   301.64163     -4.8480528      0              58.277147      2064.3701    
    267000   300.2168      -3.2461191      0              59.580903      2124.7416    
    268000   303.55022     -3.7289343      0              59.795681      2216.6013    
    269000   302.80788     -3.9889599      0              59.380304      2098.5367    
    270000   293.50667     -4.531904       0              56.890875      2006.5579    
    271000   303.90513     -3.4926064      0              60.106281      2144.9788    
    272000   290.03215     -3.8324222      0              56.863237      2072.1845    
    273000   291.92582     -4.081578       0              57.010373      2117.1951    
    274000   304.00017     -3.0984563      0              60.52032       2201.1941    
    275000   302.05117     -3.4455432      0              59.765361      2191.0344    
    276000   309.03797     -3.6323207      0              61.040727      2164.2548    
    277000   294.82845     -4.1764373      0              57.522954      2041.2772    
    278000   303.69634     -4.2678289      0              59.287364      2187.0022    
    279000   305.12559     -5.9287762      0              57.92552       2077.6801    
    280000   293.70601     -5.4496426      0              56.014853      2116.683     
    281000   297.03893     -5.6694544      0              56.492528      2000.5675    
    282000   300.23492     -5.9326425      0              56.898172      2107.7047    
    283000   298.4882      -5.14671        0              57.318565      2047.7657    
    284000   306.01169     -6.8527513      0              57.18698       2109.275     
    285000   300.47776     -4.2102821      0              58.671352      2107.338     
    286000   297.79107     -3.0421634      0              59.277221      2078.2722    
    287000   307.16393     -5.6352331      0              58.645631      1922.1692    
    288000   293.78648     -4.6540521      0              56.827283      2173.805     
    289000   306.57053     -5.2682114      0              58.888469      1985.9914    
    290000   283.2812      -4.0862464      0              55.196626      2128.7899    
    291000   295.32483     -5.4918941      0              56.311375      1971.3946    
    292000   298.82198     -2.8458255      0              59.6893        2063.2627    
    293000   313.56861     -3.5943535      0              62.026832      2121.7425    
    294000   292.57184     -3.7333017      0              57.493845      2134.375     
    295000   308.698       -2.8045427      0              61.797359      2174.9443    
    296000   306.30301     -5.3790981      0              58.721598      2003.4704    
    297000   309.38481     -4.660845       0              60.084788      2182.1295    
    298000   290.04866     -4.722276       0              55.976838      2074.1958    
    299000   299.91464     -4.7108724      0              58.052917      2078.7425    
    300000   295.25717     -4.0859849      0              57.703126      2027.0185    
    301000   304.53466     -5.0482282      0              58.682403      2034.4492    
    302000   300.76537     -4.9115722      0              58.03025       2099.0986    
    303000   301.37086     -6.9200242      0              56.148511      2148.426     
    304000   307.35146     -4.3698431      0              59.950265      2062.0736    
    305000   304.80293     -4.6912664      0              59.095507      2170.506     
    306000   300.93886     -4.307676       0              58.670455      2115.147     
    307000   307.93211     -5.1571329      0              59.284489      2052.0178    
    308000   299.45389     -3.66452        0              59.002847      2172.4543    
    309000   300.94481     -4.0009825      0              58.978392      2120.3311    
    310000   294.77571     -5.5627117      0              56.125641      2075.8096    
    311000   303.444       -4.9626763      0              58.53971       2096.2687    
    312000   295.91846     -4.4615473      0              57.465951      2111.1465    
    313000   301.49659     -5.6601016      0              57.434747      2079.6742    
    314000   315.99573     -5.125409       0              61.003705      2171.0277    
    315000   301.03811     -3.7670116      0              59.231888      2090.0808    
    316000   296.74665     -3.9143034      0              58.186514      2007.0508    
    317000   311.44065     -3.8246181      0              61.351243      2202.886     
    318000   306.33992     -5.1634554      0              58.944967      2135.2273    
    319000   307.2719      -3.7307433      0              60.572716      2162.6741    
    320000   306.88619     -4.1200984      0              60.102642      2156.4888    
    321000   294.74314     -5.2306732      0              56.450865      2108.1149    
    322000   297.91        -5.5915334      0              56.752739      2032.6538    
    323000   300.54134     -4.7019811      0              58.192958      2087.1103    
    324000   303.06753     -5.2137364      0              58.209864      2031.6491    
    325000   300.51266     -3.6010422      0              59.287895      2160.0797    
    326000   315.89939     -3.0087584      0              63.100195      2152.072     
    327000   299.66297     -4.7669231      0              57.944199      2217.4699    
    328000   300.13956     -3.1463631      0              59.664495      2152.1771    
    329000   294.53801     -3.1798934      0              58.458716      2105.6371    
    330000   300.1683      -5.8706245      0              56.946249      2035.1791    
    331000   281.55242     -6.2014059      0              52.719681      1964.5748    
    332000   303.81731     -5.546552       0              58.033956      2117.4904    
    333000   299.34626     -4.5643345      0              58.080508      2078.676     
    334000   311.67927     -5.322466       0              59.903333      2084.8467    
    335000   292.17655     -3.1799824      0              57.96444       2169.0261    
    336000   301.90975     -6.1140493      0              57.06726       2074.5511    
    337000   297.08607     -5.6595722      0              56.512275      1909.925     
    338000   297.77058     -7.1636501      0              55.151447      1996.8466    
    339000   297.79446     -5.5644997      0              56.755595      2088.8278    
    340000   308.36014     -4.5514217      0              59.979775      2102.0511    
    341000   310.9377      -5.0681135      0              60.002495      2111.0548    
    342000   295.86214     -4.0193673      0              57.896346      2111.2127    
    343000   306.48847     -6.68665        0              57.452859      2177.8433    
    344000   298.89279     -4.6289813      0              57.920962      2042.8991    
    345000   290.60954     -4.7004168      0              56.116073      2155.7751    
    346000   307.39754     -3.3670712      0              60.96268       2180.4664    
    347000   296.25162     -4.7421818      0              57.255039      2005.6419    
    348000   292.95044     -3.2914391      0              58.014936      2056.7136    
    349000   300.69863     -4.6774397      0              58.250416      2037.481     
    350000   293.26185     -5.445467       0              55.926077      2078.1187    
    351000   301.22149     -3.9369651      0              59.10031       2187.1384    
    352000   304.31147     -5.2869841      0              58.396939      2073.216     
    353000   294.13248     -5.1408077      0              56.412936      2130.1626    
    354000   305.77912     -2.302284       0              61.688778      2127.6466    
    355000   296.82623     -4.2444763      0              57.872995      2079.9032    
    356000   302.17959     -4.2907129      0              58.947068      2129.6623    
    357000   305.78103     -2.6670954      0              61.324365      2177.6084    
    358000   298.89695     -5.9298913      0              56.620924      2080.2812    
    359000   297.35651     -4.4535729      0              57.774871      2144.4373    
    360000   288.07068     -5.1919138      0              55.093263      1979.8248    
    361000   294.65484     -5.066497       0              56.596562      2020.6917    
    362000   305.03576     -5.8268151      0              58.008682      2080.7666    
    363000   295.96318     -4.2861684      0              57.650691      2073.1617    
    364000   290.38201     -4.5993095      0              56.169565      2190.5387    
    365000   292.88287     -4.2887818      0              57.003452      1988.3599    
    366000   299.30284     -4.4264085      0              58.209348      2126.178     
    367000   294.93053     -4.7936042      0              56.927149      1997.4239    
    368000   302.27839     -4.8123683      0              58.446088      2077.1361    
    369000   303.4404      -5.2716318      0              58.23          2055.9131    
    370000   297.3112      -5.4049239      0              56.814037      1950.9626    
    371000   304.67112     -5.4038096      0              58.355379      2056.9944    
    372000   307.53834     -6.3358055      0              58.023412      2000.0142    
    373000   292.5826      -5.7366006      0              55.492796      2070.1543    
    374000   299.43326     -4.95478        0              57.70827       2023.665     
    375000   300.24814     -4.4323248      0              58.401256      2061.0432    
    376000   304.7167      -5.1787963      0              58.58993       2182.4346    
    377000   312.50352     -2.9176206      0              62.480671      2121.8667    
    378000   290.15172     -4.0513233      0              56.669358      2147.2288    
    379000   301.72617     -3.8314443      0              59.311447      1998.6409    
    380000   287.01332     -5.4497555      0              54.614147      2068.7438    
    381000   302.96845     -6.1272319      0              57.275636      1927.1145    
    382000   309.15405     -5.6085552      0              59.088784      2111.2797    
    383000   297.48459     -4.2894191      0              57.965828      2210.7508    
    384000   311.2213      -6.1665344      0              58.963424      2118.2485    
    385000   307.58108     -5.0003311      0              59.36783       2064.6547    
    386000   298.20236     -3.2478027      0              59.157654      2097.64      
    387000   298.3031      -4.152856       0              58.273682      2109.7458    
    388000   287.99409     -5.4286499      0              54.8405        1968.4537    
    389000   309.58266     -5.6385366      0              59.148501      2019.5892    
    390000   304.53922     -4.2925173      0              59.439068      2171.8122    
    391000   296.7138      -6.4089133      0              55.68503       2128.7874    
    392000   306.45393     -4.0462007      0              60.086079      2162.0385    
    393000   298.68566     -3.9436697      0              58.562929      2094.9106    
    394000   299.49618     -5.7648566      0              56.91136       2052.3932    
    395000   300.35603     -4.3524777      0              58.503681      2187.3438    
    396000   300.46087     -4.6877344      0              58.190366      2136.0953    
    397000   296.62661     -5.1548804      0              56.920816      2005.7188    
    398000   300.5029      -3.1721061      0              59.714789      2148.0843    
    399000   308.62671     -4.2564157      0              60.330567      2101.4597    
    400000   300.1628      -3.4724467      0              59.343275      2137.5674    
    401000   294.89813     -5.4227964      0              56.291177      2009.0273    
    402000   297.04415     -4.8394078      0              57.323667      2079.6513    
    403000   302.16219     -5.9324729      0              57.301666      2034.0815    
    404000   299.70664     -5.2605504      0              57.459711      1960.1525    
    405000   295.92909     -5.3304818      0              56.599242      2105.0922    
    406000   294.4439      -3.3420598      0              58.276856      2041.8544    
    407000   293.82142     -3.5318562      0              57.956792      2093.0838    
    408000   302.21631     -4.4511789      0              58.794285      2067.8165    
    409000   289.69823     -2.8784718      0              57.747306      2135.5311    
    410000   297.68728     -5.7016111      0              56.596054      2042.649     
    411000   300.92559     -4.4381973      0              58.537156      2136.3593    
    412000   304.83947     -5.0944756      0              58.699944      2019.343     
    413000   298.86824     -4.0926267      0              58.45218       2038.6869    
    414000   290.70376     -5.0981479      0              55.73806       2085.1304    
    415000   297.07897     -7.0914871      0              55.078874      1981.495     
    416000   303.43401     -5.109016       0              58.391278      2180.019     
    417000   308.8799      -5.6325133      0              59.007455      2149.7154    
    418000   300.13948     -4.378909       0              58.431932      1978.3004    
    419000   314.83662     -5.0715646      0              60.814979      2151.9658    
    420000   303.97133     -4.5886344      0              59.024106      2088.4852    
    421000   300.14347     -3.5990726      0              59.212603      2061.2845    
    422000   320.80117     -5.1385991      0              61.996159      2111.0195    
    423000   297.42439     -4.4707396      0              57.77191       2123.5358    
    424000   298.82034     -3.9029545      0              58.631827      2144.9559    
    425000   314.21835     -4.4165449      0              61.340612      2138.6858    
    426000   305.03218     -4.2863631      0              59.548385      2072.5371    
    427000   308.30027     -4.7294649      0              59.789203      2139.1964    
    428000   302.37598     -3.8017735      0              59.477106      2128.1533    
    429000   304.21655     -3.1539117      0              60.510147      2095.264     
    430000   297.63206     -3.6435749      0              58.642535      2215.5524    
    431000   296.8652      -3.1036248      0              59.022001      2210.3499    
    432000   291.81733     -4.444322       0              56.624926      2159.7339    
    433000   295.21538     -5.1388997      0              56.641464      2124.1921    
    434000   296.64545     -4.7619814      0              57.317657      2140.9239    
    435000   303.11707     -4.4532307      0              58.980737      2198.3116    
    436000   302.75033     -3.1073206      0              60.249899      2071.3227    
    437000   307.01538     -3.0439677      0              61.205808      2125.7579    
    438000   307.6142      -4.545427       0              59.829665      2093.4226    
    439000   305.35539     -4.6698995      0              59.232487      2071.9653    
    440000   295.75761     -2.9153702      0              58.978468      2131.9049    
    441000   304.4186      -4.8765088      0              58.829833      2157.2962    
    442000   301.05031     -4.1742977      0              58.827156      2149.6945    
    443000   308.72269     -3.8901344      0              60.716933      2151.0509    
    444000   285.98806     -5.2983947      0              54.55095       1972.0584    
    445000   304.4733      -5.7328875      0              57.984902      2101.9963    
    446000   293.59584     -4.6672127      0              56.774228      2148.3077    
    447000   300.56336     -4.0510136      0              58.848535      1979.8416    
    448000   303.95929     -2.4953396      0              61.114882      2131.9984    
    449000   311.40804     -4.1882837      0              60.980755      2206.9896    
    450000   292.01409     -5.5999245      0              55.510499      2031.0759    
    451000   291.20279     -5.9534911      0              54.987149      2018.4126    
    452000   301.00998     -5.087556       0              57.905458      2023.0553    
    453000   292.7468      -5.7279527      0              55.535806      2096.933     
    454000   309.94071     -4.5094389      0              60.352527      2088.1381    
    455000   296.16644     -3.9363176      0              58.043077      2086.8812    
    456000   302.75374     -4.7720758      0              58.585858      2110.4246    
    457000   301.89515     -4.9208495      0              58.257405      2122.5304    
    458000   298.24804     -4.2162917      0              58.198724      2122.2483    
    459000   301.24691     -3.948962       0              59.093633      2116.565     
    460000   295.30837     -3.584813       0              58.215011      2118.1268    
    461000   296.16704     -6.4378334      0              55.541688      2001.8488    
    462000   289.85959     -5.5784966      0              55.08105       1970.0168    
    463000   300.83761     -3.898911       0              59.05803       2162.6543    
    464000   306.90643     -5.5332762      0              58.693701      2039.2988    
    465000   296.51476     -3.9684516      0              58.083838      2078.2685    
    466000   291.52194     -4.7193016      0              56.288128      2054.6411    
    467000   298.73848     -4.8491227      0              57.668528      2029.8955    
    468000   303.32135     -3.9847611      0              59.491958      2029.8097    
    469000   301.03732     -5.5505679      0              57.448167      1997.8625    
    470000   299.99072     -4.5825834      0              58.197127      2017.6364    
    471000   289.39534     -4.3351345      0              56.227257      2173.6025    
    472000   298.06673     -5.3295455      0              57.047528      2177.3206    
    473000   311.14481     -4.9202554      0              60.193695      2135.8503    
    474000   305.96603     -4.5275321      0              59.502644      2052.4393    
    475000   297.44326     -4.894187       0              57.35241       2140.2783    
    476000   299.12758     -4.2301151      0              58.368964      1975.0665    
    477000   294.48916     -5.9117556      0              55.716631      2106.1136    
    478000   299.41253     -4.4499943      0              58.208717      2135.0125    
    479000   294.29549     -5.6432347      0              55.944622      1985.0605    
    480000   298.52623     -3.9290757      0              58.544158      2014.7809    
    481000   301.34431     -5.0729219      0              57.990057      2056.5384    
    482000   303.00269     -2.8991336      0              60.510899      2236.3334    
    483000   297.23193     -3.5808016      0              58.621571      2213.2022    
    484000   309.5381      -3.5928801      0              61.184831      2174.9621    
    485000   307.05549     -4.6667267      0              59.591444      2002.5835    
    486000   294.6518      -4.9990432      0              56.663381      2144.8043    
    487000   301.71793     -2.573045       0              60.568123      2139.6911    
    488000   302.95427     -6.4002315      0              56.999668      1928.6748    
    489000   301.42971     -5.9439919      0              57.13686       1969.0526    
    490000   296.90816     -4.2127959      0              57.921821      2068.018     
    491000   298.89847     -3.5512295      0              58.999904      2170.8678    
    492000   312.15234     -4.5894902      0              60.73531       2169.077     
    493000   305.48559     -4.5661017      0              59.363532      2064.613     
    494000   301.24518     -4.7599409      0              58.282293      2085.8299    
    495000   294.36377     -4.7351677      0              56.866979      2122.1172    
    496000   297.88037     -3.4817789      0              58.856294      2092.1723    
    497000   294.28507     -5.3958682      0              56.189809      2033.1086    
    498000   301.74745     -5.3746502      0              57.772694      2035.6355    
    499000   294.38211     -5.9461292      0              55.659855      2024.2289    
    500000   300.65133     -5.1106613      0              57.807296      2105.8332    
    501000   295.19109     -3.5749365      0              58.200345      2253.0196    
    502000   293.73138     -4.0241918      0              57.445613      2081.0387    
    503000   307.20912     -4.2675813      0              60.022739      2157.6619    
    504000   297.82364     -4.5874115      0              57.738789      2072.4597    
    505000   288.92329     -4.6450094      0              55.818596      2105.5343    
    506000   300.73843     -5.2965636      0              57.639623      2153.3046    
    507000   303.09589     -5.2688013      0              58.160734      2048.6291    
    508000   307.56014     -5.0851607      0              59.278618      2151.3964    
    509000   313.456       -3.5354515      0              62.062167      2198.6413    
    510000   302.04964     -5.5878768      0              57.622708      2105.6358    
    511000   303.26719     -3.3524457      0              60.112938      2183.8299    
    512000   303.49772     -4.62948        0              58.884147      2155.1295    
    513000   301.69079     -3.7295659      0              59.405921      2165.0582    
    514000   301.42645     -4.9084879      0              58.17168       2240.6403    
    515000   303.22434     -5.1702299      0              58.286188      2059.0847    
    516000   298.82271     -4.8386853      0              57.696594      2029.8424    
    517000   304.7008      -4.0363272      0              59.729072      2093.3096    
    518000   302.49771     -2.9800406      0              60.324313      2201.3149    
    519000   295.64264     -4.8637688      0              57.00601       2133.34      
    520000   300.58229     -5.7301275      0              57.173382      2121.0952    
    521000   302.79629     -5.6628034      0              57.704035      2053.5452    
    522000   303.33241     -3.6100532      0              59.86898       2090.5937    
    523000   299.5653      -3.7256641      0              58.965019      2107.5814    
    524000   297.50887     -3.6615794      0              58.598749      2112.196     
    525000   307.89737     -5.43066        0              59.003692      2123.8562    
    526000   293.17605     -4.6647019      0              56.688888      2119.4781    
    527000   300.35635     -4.333584       0              58.522643      2116.3059    
    528000   298.74111     -4.3951287      0              58.123074      2090.8208    
    529000   300.87983     -2.8094855      0              60.156291      2249.3637    
    530000   301.79623     -4.9901706      0              58.167382      2163.4031    
    531000   301.40383     -4.1846439      0              58.890791      2218.3964    
    532000   304.72317     -5.2428123      0              58.527268      2066.0323    
    533000   314.20928     -3.8622368      0              61.893022      2123.1727    
    534000   295.85812     -5.5679644      0              56.346908      2080.5947    
    535000   298.93092     -5.9643503      0              56.593574      2079.0256    
    536000   302.17723     -2.2410274      0              60.99626       2166.5144    
    537000   297.28241     -5.1200334      0              57.092904      2087.4363    
    538000   294.38902     -4.5587584      0              57.048671      2065.1028    
    539000   297.21999     -5.6133978      0              56.586476      2074.2597    
    540000   305.20965     -4.4311098      0              59.440777      2145.7688    
    541000   298.28715     -3.8829081      0              58.540291      2096.0359    
    542000   301.81427     -5.0567395      0              58.104589      2088.8435    
    543000   301.18534     -5.7852399      0              57.244471      1946.2396    
    544000   303.28612     -3.2462358      0              60.22311       2219.7629    
    545000   297.79066     -5.5013435      0              56.817955      2131.1012    
    546000   305.11807     -4.8666697      0              58.986052      1979.0206    
    547000   296.58168     -4.0995064      0              57.966787      2048.0267    
    548000   295.32721     -4.8825205      0              56.921247      2109.0992    
    549000   299.90731     -3.6478377      0              59.114418      2122.1988    
    550000   304.05229     -2.9897554      0              60.639928      2098.954     
    551000   303.117       -5.9775995      0              57.456355      2000.6027    
    552000   294.38412     -5.0058127      0              56.600592      2073.1784    
    553000   293.83363     -4.5412982      0              56.949904      2167.0113    
    554000   297.57347     -4.8197558      0              57.454091      2066.7613    
    555000   305.39826     -5.9691605      0              57.942198      2100.745     
    556000   295.66496     -3.5601621      0              58.314287      2062.9409    
    557000   298.38903     -4.2094061      0              58.235114      2122.7801    
    558000   298.48028     -5.7703985      0              56.69322       1958.944     
    559000   296.11605     -4.1690345      0              57.799816      2080.7741    
    560000   297.8137      -3.809502       0              58.514618      1996.7359    
    561000   283.20243     -5.281581       0              53.984808      2074.194     
    562000   299.15787     -5.3103124      0              57.295107      2023.0173    
    563000   300.04435     -4.9028108      0              57.888124      2104.9493    
    564000   303.97917     -4.0931604      0              59.521221      2181.1569    
    565000   302.98964     -3.5435272      0              59.863773      2091.3877    
    566000   303.50405     -5.1801461      0              58.334807      1986.1397    
    567000   300.06242     -4.4445737      0              58.350142      2085.8622    
    568000   296.84487     -5.2484398      0              56.872932      2061.3942    
    569000   288.15293     -4.730815       0              55.571576      2074.2299    
    570000   294.47798     -6.0274318      0              55.598615      2085.9762    
    571000   296.09763     -4.7897955      0              57.175199      2095.939     
    572000   306.20268     -4.8094749      0              59.270227      2148.9946    
    573000   299.75905     -2.7619181      0              59.969309      2051.8008    
    574000   294.07949     -3.4480281      0              58.094627      2064.8368    
    575000   306.09849     -5.8526542      0              58.205242      1960.5086    
    576000   299.62798     -3.8182713      0              58.885527      2105.7653    
    577000   296.92354     -3.7280631      0              58.409771      2123.7617    
    578000   300.77606     -4.0559464      0              58.888114      2274.6063    
    579000   302.47766     -4.8956832      0              58.404475      2106.7174    
    580000   305.24219     -4.7976601      0              59.081037      2201.6895    
    581000   296.78036     -4.3154972      0              57.792375      2165.2099    
    582000   293.74466     -4.5594445      0              56.913139      2127.5919    
    583000   301.34579     -5.0289719      0              58.034317      2070.9954    
    584000   311.79428     -4.4446925      0              60.805174      2193.4701    
    585000   292.23467     -5.9738981      0              55.182688      2149.1248    
    586000   310.99599     -3.3150746      0              61.767732      2118.3739    
    587000   290.28461     -4.399561       0              56.348931      2058.6142    
    588000   296.43679     -6.5282774      0              55.507694      1981.7245    
    589000   296.82662     -4.0498495      0              58.067704      2178.9694    
    590000   308.03704     -3.5770486      0              60.886532      2085.3984    
    591000   298.13865     -2.9265549      0              59.465569      2183.1382    
    592000   292.64672     -4.4146037      0              56.828212      2131.6397    
    593000   299.57604     -4.9520677      0              57.740861      2088.2041    
    594000   293.67378     -3.840966       0              57.616785      2140.5423    
    595000   301.46082     -4.29607        0              58.791292      2143.6495    
    596000   314.91786     -3.2495529      0              62.653992      2178.9911    
    597000   294.0109      -5.5493869      0              55.978913      2054.3279    
    598000   292.71411     -4.4320917      0              56.824827      2132.7504    
    599000   310.59388     -4.5699309      0              60.428725      2133.8883    
    600000   302.99693     -5.1770082      0              58.231817      2012.2245    
    601000   299.06077     -5.5652037      0              57.019895      2069.5681    
    602000   298.31808     -5.1136213      0              57.316053      2071.3755    
    603000   292.73897     -4.8753955      0              56.386725      2065.7547    
    604000   306.82864     -4.9242356      0              59.286461      2053.1462    
    605000   300.17184     -3.4295032      0              59.38811       2160.6358    
    606000   291.08653     -3.0727849      0              57.843526      2095.0249    
    607000   311.14833     -5.8981568      0              59.216531      2135.6273    
    608000   298.47269     -4.6202588      0              57.841771      2125.4542    
    609000   310.22983     -4.670593       0              60.251878      2077.2675    
    610000   299.30163     -4.8836928      0              57.75181       2024.6334    
    611000   299.35115     -5.2582906      0              57.387576      2074.1223    
    612000   306.61322     -4.2906772      0              59.874938      2124.2863    
    613000   295.95527     -4.8102975      0              57.124905      2078.3466    
    614000   305.19743     -4.2862417      0              59.583088      2016.2105    
    615000   295.85205     -3.9276403      0              57.985963      2164.8598    
    616000   294.32071     -5.0202186      0              56.572916      2031.394     
    617000   299.25437     -6.179919       0              56.445693      2030.0349    
    618000   301.63245     -5.4200535      0              57.703226      2092.9659    
    619000   298.83259     -5.4651409      0              57.072205      2034.2905    
    620000   310.07691     -4.6487661      0              60.241703      2195.0045    
    621000   295.53376     -5.590922       0              56.256071      2099.5224    
    622000   296.149       -4.9817987      0              56.993947      2053.4598    
    623000   299.64613     -5.9304685      0              56.777128      2082.5084    
    624000   307.27556     -6.6319529      0              57.672273      2123.8564    
    625000   301.19057     -4.8897283      0              58.141077      2131.8727    
    626000   308.92611     -5.0817379      0              59.567901      2083.5541    
    627000   295.89752     -5.2049502      0              56.718168      2184.8151    
    628000   299.20823     -3.955531       0              58.660426      2159.8513    
    629000   305.89441     -4.0760857      0              59.939103      2119.8662    
    630000   306.58404     -3.1480887      0              61.01142       2134.0967    
    631000   305.84328     -4.7173432      0              59.287145      2006.7299    
    632000   294.95288     -4.3048672      0              57.420562      2109.4834    
    633000   304.53601     -2.7954018      0              60.935511      2156.9668    
    634000   306.42226     -5.1323213      0              58.993331      2065.8074    
    635000   304.77633     -3.1434461      0              60.637759      2236.8825    
    636000   301.40877     -5.1803205      0              57.896149      2081.3088    
    637000   285.76745     -4.9910399      0              54.812135      2006.1667    
    638000   294.3169      -5.5902257      0              56.002112      2048.7464    
    639000   302.78567     -5.3562674      0              58.008349      2088.6605    
    640000   302.27528     -3.8636141      0              59.394191      2084.1561    
    641000   302.54485     -4.1555433      0              59.158676      2193.8064    
    642000   295.4618      -4.4607714      0              57.371161      2245.8019    
    643000   308.79736     -4.3009987      0              60.321696      2240.96      
    644000   294.85039     -3.5570285      0              58.146953      2083.0338    
    645000   297.03104     -5.0699733      0              57.090359      2066.5301    
    646000   297.8858      -4.9436678      0              57.395542      2017.1306    
    647000   291.96249     -3.1737052      0              57.92592       2142.5647    
    648000   290.02071     -5.2117957      0              55.481469      2011.5326    
    649000   295.18856     -4.4530354      0              57.321716      2140.4119    
    650000   299.21708     -5.7511921      0              56.866617      2062.9255    
    651000   302.52884     -4.3106397      0              59.000229      2206.9697    
    652000   304.79082     -3.7086414      0              60.075597      2101.2604    
    653000   302.6525      -4.2273758      0              59.109372      2133.5474    
    654000   307.3725      -5.044811       0              59.2797        2139.0076    
    655000   301.02609     -5.8104567      0              57.185928      2020.7535    
    656000   298.86431     -3.0634482      0              59.480536      2179.9485    
    657000   289.61854     -4.5636672      0              56.045436      2167.5436    
    658000   301.4825      -4.3759765      0              58.715923      2130.6399    
    659000   306.57044     -4.7497995      0              59.406863      2127.2275    
    660000   307.67119     -4.1797237      0              60.207295      2094.6071    
    661000   297.32074     -5.900091       0              56.320867      2047.6675    
    662000   305.91582     -6.5835654      0              57.436103      2062.2556    
    663000   302.70927     -3.4334839      0              59.915144      2106.0653    
    664000   303.63535     -5.1973242      0              58.345106      2090.3778    
    665000   304.36843     -4.4764069      0              59.219436      2129.6621    
    666000   290.81812     -2.5158704      0              58.344271      2114.0418    
    667000   289.06867     -4.993475       0              55.500554      2025.4341    
    668000   310.85585     -3.0630227      0              61.990456      2122.9138    
    669000   306.43453     -4.4708378      0              59.657383      2103.6719    
    670000   293.70109     -2.7033631      0              58.760103      2220.2422    
    671000   307.46714     -2.7745055      0              61.569811      2176.114     
    672000   303.44184     -3.6545876      0              59.847346      2017.5853    
    673000   301.01631     -6.8876169      0              56.106721      1970.5133    
    674000   293.80995     -4.7115921      0              56.774656      2090.015     
    675000   306.83852     -4.2212283      0              59.991536      2202.8711    
    676000   300.61044     -5.8914757      0              57.017924      2046.5583    
    677000   300.26052     -5.1879011      0              57.648271      2059.7136    
    678000   307.8402      -4.86477        0              59.557618      2113.4621    
    679000   285.37123     -4.9390681      0              54.781189      1993.1734    
    680000   296.82551     -4.3174801      0              57.79984       2054.7727    
    681000   298.15026     -5.4058602      0              56.988694      2006.075     
    682000   297.20662     -4.0202423      0              58.176833      2163.9669    
    683000   299.73078     -4.7342471      0              57.991064      2025.8271    
    684000   298.69728     -4.70915        0              57.799878      2098.467     
    685000   294.20822     -4.985709       0              56.583885      2079.3375    
    686000   298.98135     -3.1269437      0              59.441535      2146.8581    
    687000   291.84485     -2.2414401      0              58.833565      2131.7313    
    688000   285.10375     -5.3652029      0              54.299078      2091.8868    
    689000   297.43563     -5.2182121      0              57.026789      2127.3865    
    690000   297.3189      -5.5609085      0              56.659663      2159.6686    
    691000   291.19944     -3.415503       0              57.524438      2121.1706    
    692000   308.34852     -5.3948841      0              59.133881      2073.8929    
    693000   307.62095     -4.278931       0              60.097574      2048.0525    
    694000   295.15458     -5.1215561      0              56.646084      1966.2733    
    695000   305.68599     -5.8073957      0              58.164176      2133.7678    
    696000   299.12925     -5.8036249      0              56.795804      1997.9863    
    697000   296.96683     -3.410976       0              58.735918      2197.4319    
    698000   303.71872     -4.825441       0              58.734437      2115.1759    
    699000   301.64948     -5.787652       0              57.33919       2078.4244    
    700000   299.26343     -6.098541       0              56.528967      2003.6174    
    701000   303.7036      -4.584087       0              58.972626      1985.8434    
    702000   308.45763     -3.6292461      0              60.922353      2229.4258    
    703000   291.88707     -4.2680982      0              56.815745      2134.83      
    704000   303.05678     -4.6839809      0              58.73737       2199.0396    
    705000   290.14237     -5.3166101      0              55.402114      2107.2637    
    706000   292.87285     -3.9974634      0              57.292675      2083.7738    
    707000   297.67234     -3.153189       0              59.141348      2182.464     
    708000   300.9194      -3.0568197      0              59.917238      2283.7082    
    709000   289.42551     -5.8098441      0              54.758862      2077.1168    
    710000   298.46449     -4.8747301      0              57.585582      2096.3744    
    711000   312.87959     -3.0385962      0              62.438396      2175.4505    
    712000   289.28635     -4.6768566      0              55.862727      2120.0723    
    713000   293.44113     -4.7698585      0              56.639205      2083.3509    
    714000   300.30635     -4.656489       0              58.189273      2012.7245    
    715000   289.87609     -5.5718107      0              55.09119       2123.6216    
    716000   312.61441     -3.9838613      0              61.437637      2082.2666    
    717000   297.92179     -5.3393395      0              57.007402      1975.8274    
    718000   304.19569     -5.6038762      0              58.055817      2077.4587    
    719000   291.33314     -5.6353719      0              55.332547      1947.8873    
    720000   300.76993     -3.7604849      0              59.182292      2125.4473    
    721000   303.2589      -4.6831516      0              58.780498      2141.0261    
    722000   314.05789     -4.003009       0              61.720568      2080.184     
    723000   288.54033     -4.3623491      0              56.021113      2139.917     
    724000   312.58841     -3.8864265      0              61.52963       2155.5291    
    725000   311.81536     -5.4188182      0              59.83546       2082.784     
    726000   300.67546     -5.269994       0              57.653012      2094.9495    
    727000   294.58473     -4.3387804      0              57.309606      2145.8025    
    728000   301.99619     -5.1811545      0              58.018246      2083.1585    
    729000   293.64586     -2.5517795      0              58.900129      2240.8155    
    730000   302.26824     -4.8612634      0              58.39507       2066.4553    
    731000   297.65131     -3.1797625      0              59.110375      2125.8557    
    732000   301.86848     -4.0981398      0              59.074533      2128.1764    
    733000   297.84113     -5.825071       0              56.50479       2032.3664    
    734000   303.25867     -5.0284376      0              58.435164      2058.35      
    735000   305.94008     -3.9977961      0              60.026951      2035.8364    
    736000   287.62049     -5.6299996      0              54.560967      1961.6252    
    737000   299.90959     -4.4454301      0              58.317302      2063.3988    
    738000   302.09087     -4.6820003      0              58.537213      2184.3189    
    739000   297.00382     -5.1152472      0              57.039388      1991.7753    
    740000   306.50319     -4.8625528      0              59.280036      2055.2742    
    741000   303.97909     -5.4027101      0              58.211655      2097.211     
    742000   298.24023     -5.6653393      0              56.748043      2076.2646    
    743000   290.63342     -5.1334348      0              55.688054      2087.1751    
    744000   303.19012     -6.1468658      0              57.302391      2067.8854    
    745000   298.26754     -4.6219715      0              57.797124      2070.7872    
    746000   297.75263     -6.8800692      0              55.43127       2041.9082    
    747000   298.15693     -4.6200863      0              57.775864      2058.2911    
    748000   303.8719      -3.7899131      0              59.802021      2137.7023    
    749000   286.87829     -5.4336562      0              54.601987      2067.1827    
    750000   290.9219      -4.8696116      0              56.012247      1979.8567    
    751000   303.82222     -4.0606588      0              59.520877      2073.0326    
    752000   297.87317     -5.3077052      0              57.028861      1968.9284    
    753000   302.638       -2.7375833      0              60.596129      2125.7776    
    754000   300.49037     -3.5277737      0              59.3565        2044.6828    
    755000   304.75618     -5.266075       0              58.510914      2037.3292    
    756000   299.14016     -4.7337158      0              57.867996      2042.6384    
    757000   295.07163     -3.6475966      0              58.102686      2097.8657    
    758000   295.01955     -5.7170464      0              56.022336      2096.4802    
    759000   300.60653     -4.434132       0              58.47445       2088.4282    
    760000   307.88391     -3.5004125      0              60.931124      2137.6155    
    761000   299.09233     -4.8561481      0              57.735554      2022.0119    
    762000   311.78984     -4.7855018      0              60.463436      2081.7765    
    763000   301.70155     -3.3025304      0              59.835209      2101.6866    
    764000   296.18757     -4.7612041      0              57.222613      2152.2087    
    765000   296.8936      -5.4443441      0              56.687225      2106.1978    
    766000   290.49173     -4.9202461      0              55.87159       2083.4811    
    767000   291.62066     -3.9670181      0              57.061072      2162.1391    
    768000   305.83006     -3.7410287      0              60.260694      2133.3478    
    769000   288.5101      -5.0171966      0              55.359939      2068.2247    
    770000   298.43091     -4.3017534      0              58.151532      2121.0521    
    771000   299.50414     -5.2137453      0              57.464138      2177.4161    
    772000   309.86618     -4.7039099      0              60.142459      2107.3733    
    773000   296.28145     -3.7016963      0              58.301768      2136.534     
    774000   302.09711     -4.5021383      0              58.718381      2042.9032    
    775000   308.50143     -3.2035052      0              61.357259      2122.6838    
    776000   297.85669     -4.470287       0              57.86283       2089.6157    
    777000   294.52841     -4.4872733      0              57.149327      2040.822     
    778000   289.76127     -5.9069758      0              54.731996      2062.577     
    779000   288.9665      -5.9306801      0              54.541967      2017.6193    
    780000   310.89605     -2.1015249      0              62.960368      2229.2471    
    781000   299.10523     -4.0694295      0              58.524971      2105.4819    
    782000   292.14702     -5.6592162      0              55.479026      1981.434     
    783000   301.4067      -5.206898       0              57.869137      2049.8368    
    784000   307.72307     -4.6842814      0              59.713595      2063.3465    
    785000   301.32726     -3.5023834      0              59.557028      2119.7661    
    786000   294.57331     -5.422422       0              56.223575      2055.0444    
    787000   300.02054     -4.7622472      0              58.023704      2077.6091    
    788000   310.29448     -4.1949506      0              60.741051      2154.2324    
    789000   297.77524     -5.8448038      0              56.471269      2095.1522    
    790000   284.93975     -4.6192865      0              55.010674      2164.11      
    791000   288.528       -4.3161856      0              56.064695      2119.0692    
    792000   301.98552     -4.8879409      0              58.309226      1939.5236    
    793000   297.86235     -5.2138812      0              57.12042       2059.7292    
    794000   299.43266     -6.0608723      0              56.602052      2117.9007    
    795000   305.39041     -6.3145966      0              57.59512       2024.1268    
    796000   308.47785     -5.7207377      0              58.835093      1973.4293    
    797000   296.11548     -6.1954487      0              55.773282      2024.2076    
    798000   301.99217     -5.1913246      0              58.007234      2009.1518    
    799000   293.51624     -3.1617408      0              58.263041      2149.0727    
    800000   305.58513     -3.243162       0              60.707302      2077.253     
    801000   293.53836     -4.9835819      0              56.44583       2097.5904    
    802000   291.44836     -4.8999802      0              56.092052      1872.8022    
    803000   295.22585     -4.8596631      0              56.922893      2076.1512    
    804000   307.51913     -5.7366409      0              58.618555      2072.0239    
    805000   300.61548     -4.1578365      0              58.752618      2110.9072    
    806000   298.13938     -5.5221256      0              56.87015       2053.1959    
    807000   302.28664     -5.1062697      0              58.153913      2111.5931    
    808000   288.6576      -4.7931458      0              55.614857      2021.4281    
    809000   304.52575     -4.3469059      0              59.38186       1981.7939    
    810000   299.59936     -4.2494356      0              58.448375      2072.7408    
    811000   307.87504     -5.9026342      0              58.527045      2047.319     
    812000   297.82253     -4.415122       0              57.910847      2193.1473    
    813000   300.5917      -4.6619653      0              58.243513      2138.6659    
    814000   301.70581     -5.3342871      0              57.804343      2225.8154    
    815000   298.75416     -4.8169167      0              57.704016      2084.0451    
    816000   301.757       -4.780331       0              58.369012      2066.3855    
    817000   305.20151     -2.8865323      0              60.98365       2189.5471    
    818000   306.22096     -4.1994168      0              59.884109      2165.5965    
    819000   291.63777     -2.6072465      0              58.424423      2053.0414    
    820000   306.03337     -4.4128399      0              59.631429      2158.7131    
    821000   287.18819     -4.4447797      0              55.655717      2156.3353    
    822000   301.90287     -5.4828354      0              57.697036      2021.4086    
    823000   278.40082     -4.9938764      0              53.267669      2024.6819    
    824000   302.42973     -4.7931542      0              58.496972      2116.3352    
    825000   294.27641     -4.8908932      0              56.69297       2024.2383    
    826000   302.07987     -4.5301881      0              58.686723      2203.3462    
    827000   311.55841     -6.9652062      0              58.2353        1995.0795    
    828000   294.35489     -4.526434       0              57.073854      2126.1238    
    829000   283.70876     -4.2786311      0              55.093719      2052.3087    
    830000   296.47049     -5.2772446      0              56.76578       2118.9636    
    831000   296.46766     -6.0343318      0              56.0081        2048.5361    
    832000   300.6418      -4.4123993      0              58.503564      2162.6119    
    833000   295.19006     -3.0115344      0              58.763532      2224.822     
    834000   300.02427     -4.4291706      0              58.357561      2085.587     
    835000   315.43848     -4.7379546      0              61.274542      2020.1604    
    836000   311.03695     -2.4698184      0              62.621561      2134.4628    
    837000   302.08326     -5.8214579      0              57.396163      2001.6511    
    838000   308.94019     -5.5368226      0              59.115764      2215.9402    
    839000   298.0952      -4.3812499      0              58.001782      2031.1217    
    840000   303.5236      -3.6410239      0              59.87802       2111.4604    
    841000   304.29481     -5.4314165      0              58.249021      2104.1934    
    842000   300.54236     -3.7015208      0              59.193632      2191.3482    
    843000   303.60136     -4.4244052      0              59.110912      2127.4626    
    844000   285.25929     -4.7149478      0              54.981885      2070.8336    
    845000   300.71725     -5.9582188      0              56.973535      1983.2346    
    846000   300.79493     -5.3804584      0              57.567551      2062.1695    
    847000   291.41316     -5.2961198      0              55.688547      2032.2699    
    848000   302.07382     -4.9980205      0              58.217624      2010.0489    
    849000   295.15491     -5.0889271      0              56.678783      2059.698     
    850000   303.16977     -3.8148007      0              59.630195      2102.1993    
    851000   302.58292     -4.0078609      0              59.314324      2021.7683    
    852000   313.60103     -4.8967355      0              60.731234      2080.2518    
    853000   290.40521     -3.9836155      0              56.790114      2066.8006    
    854000   306.8163      -5.328637       0              58.879478      2084.3601    
    855000   296.54847     -5.2713722      0              56.787972      2183.201     
    856000   303.77487     -4.2207072      0              59.350921      2130.7282    
    857000   298.93844     -4.5767687      0              57.98273       2201.6142    
    858000   301.60862     -3.9357649      0              59.182526      2176.8671    
    859000   304.62803     -3.3035859      0              60.446585      2118.8513    
    860000   291.93489     -4.70797        0              56.38588       2082.6924    
    861000   294.19809     -4.4402619      0              57.127213      2099.5265    
    862000   300.65881     -4.2734989      0              58.646023      2102.9024    
    863000   301.20945     -4.3097016      0              58.725055      2082.0267    
    864000   294.30166     -5.5528945      0              56.036253      1991.3511    
    865000   296.60002     -5.7610843      0              56.309047      2089.6018    
    866000   295.51125     -5.4246271      0              56.417655      2033.0699    
    867000   304.17542     -5.5346507      0              58.120802      2049.0627    
    868000   304.83712     -6.9023367      0              56.891591      2156.5599    
    869000   297.3721      -4.3029408      0              57.928765      2002.2961    
    870000   299.43163     -5.1518315      0              57.510877      2153.5822    
    871000   290.33441     -3.9826412      0              56.776272      2212.8642    
    872000   300.85889     -4.4610659      0              58.500329      2120.7389    
    873000   302.288       -4.197611       0              59.062855      2196.0637    
    874000   296.0983      -3.4351126      0              58.530022      2187.8926    
    875000   301.16507     -3.6062522      0              59.419218      2075.6757    
    876000   304.20028     -6.3268468      0              57.333808      2044.7012    
    877000   301.09478     -5.9286101      0              57.08215       2043.8518    
    878000   303.7905      -5.9187842      0              57.656115      2029.4624    
    879000   297.24322     -5.1139976      0              57.090738      2030.2641    
    880000   306.10004     -5.897112       0              58.161109      2085.9227    
    881000   298.75601     -4.28552        0              58.2358        2083.1376    
    882000   295.22753     -4.3176269      0              57.46528       2067.6712    
    883000   288.1926      -4.9856662      0              55.325025      2092.2514    
    884000   294.27843     -3.7194619      0              57.864826      2181.6456    
    885000   304.91694     -4.2990088      0              59.511623      2096.6336    
    886000   310.69483     -4.7500884      0              60.269694      2099.9601    
    887000   307.22474     -4.6526332      0              59.640956      2086.3367    
    888000   294.02523     -5.6695016      0              55.861798      2044.3355    
    889000   290.80028     -3.7194946      0              57.136912      2075.4956    
    890000   305.2263      -3.1471226      0              60.72825       2182.0398    
    891000   293.69604     -4.2389564      0              57.223452      2114.5221    
    892000   295.80678     -3.5437971      0              58.360332      2170.3598    
    893000   296.73697     -4.164039       0              57.934752      2131.0417    
    894000   289.64207     -4.031131       0              56.582895      2143.8884    
    895000   296.16374     -4.5216017      0              57.457228      2114.8574    
    896000   315.53983     -4.406192       0              61.627514      2138.8118    
    897000   301.08405     -5.0759861      0              57.932529      2006.5355    
    898000   301.09182     -5.7189198      0              57.291219      2016.8622    
    899000   310.60573     -4.6070386      0              60.394098      2111.7724    
    900000   296.25288     -4.9709094      0              57.026575      2008.6708    
    901000   288.55402     -3.7995841      0              56.586743      2097.245     
    902000   312.01823     -5.0091905      0              60.287543      2024.6001    
    903000   289.65015     -5.9192048      0              54.696511      2067.3947    
    904000   301.78533     -6.6110684      0              56.544203      2065.0105    
    905000   309.95065     -4.3060854      0              60.557961      2236.269     
    906000   309.09397     -5.682712       0              59.002056      2068.2997    
    907000   303.48743     -3.9967005      0              59.514774      2132.7937    
    908000   292.32634     -5.3759386      0              55.799831      2140.8146    
    909000   290.45585     -4.6291728      0              56.155155      2078.5705    
    910000   303.31863     -4.4208007      0              59.05535       2119.14      
    911000   298.68546     -4.526949       0              57.979607      2057.5927    
    912000   289.18306     -5.4153934      0              55.102575      1992.0212    
    913000   300.90485     -4.7892776      0              58.181735      2043.8735    
    914000   300.85024     -4.7763111      0              58.183272      2033.0319    
    915000   294.69202     -4.5483913      0              57.122449      2178.9293    
    916000   297.24899     -3.9245827      0              58.281359      2116.3895    
    917000   294.20269     -4.5072935      0              57.061142      2167.935     
    918000   298.18087     -4.5181848      0              57.882775      2107.0427    
    919000   301.08073     -6.5218376      0              56.485981      1987.2063    
    920000   301.10755     -5.0403697      0              57.973062      2085.1896    
    921000   300.34719     -4.5850272      0              58.269282      2154.1103    
    922000   299.22266     -5.6028494      0              57.016128      2003.8988    
    923000   300.73537     -4.1695534      0              58.765991      2117.2888    
    924000   302.86326     -5.1678946      0              58.212959      2133.3627    
    925000   298.92915     -6.5399365      0              56.017617      2012.8071    
    926000   292.51623     -3.9287318      0              57.286776      1991.5577    
    927000   301.84535     -4.7228472      0              58.444986      2098.7467    
    928000   297.78403     -3.5957864      0              58.722124      2147.4011    
    929000   301.11169     -5.2417967      0              57.772501      2122.2165    
    930000   300.3563      -5.1154669      0              57.740749      2044.5356    
    931000   300.66656     -4.3619557      0              58.559188      2087.9407    
    932000   307.42658     -3.7451756      0              60.590654      2095.4279    
    933000   306.51965     -3.03549        0              61.110543      2190.429     
    934000   294.99074     -5.4678251      0              56.265529      2061.6689    
    935000   306.11756     -5.5921125      0              58.469774      1974.0939    
    936000   298.36263     -3.1449332      0              59.294063      2174.3184    
    937000   293.09857     -4.8169957      0              56.52038       2018.8703    
    938000   298.34464     -4.4454512      0              57.989781      2151.3243    
    939000   293.09933     -7.2410764      0              54.096459      2003.5223    
    940000   309.04657     -4.7846622      0              59.890186      2058.5638    
    941000   305.88995     -5.5392457      0              58.475009      2140.7425    
    942000   303.18205     -5.2899611      0              58.157605      2130.7422    
    943000   289.25521     -4.1767074      0              56.356359      2077.7821    
    944000   302.20672     -3.9409294      0              59.302528      2113.4812    
    945000   310.87243     -3.8376437      0              61.219306      2187.0244    
    946000   298.55129     -3.7595717      0              58.718907      2186.7242    
    947000   289.61683     -6.0243989      0              54.584345      2055.6499    
    948000   293.61762     -4.638375       0              56.807622      2139.7261    
    949000   300.11216     -3.7129308      0              59.092194      2075.8241    
    950000   309.4353      -3.9007519      0              60.855447      2003.3599    
    951000   307.53648     -5.4079758      0              58.950852      2187.7115    
    952000   297.07473     -5.1245576      0              57.044917      2114.1481    
    953000   295.1276      -4.961968       0              56.800027      2028.6315    
    954000   289.32496     -6.4663328      0              54.08133       2023.6242    
    955000   300.27634     -5.6859993      0              57.153484      2044.6843    
    956000   303.6785      -4.4784761      0              59.072983      2149.1115    
    957000   317.01684     -4.8784727      0              61.464331      2079.1008    
    958000   301.46713     -2.765001       0              60.32368       2084.339     
    959000   299.0805      -5.6104773      0              56.978749      2142.5227    
    960000   288.80861     -3.0407566      0              57.398848      2046.4026    
    961000   306.40361     -5.7415857      0              58.380164      2133.984     
    962000   295.20576     -3.9934818      0              57.78487       2035.2533    
    963000   308.53001     -1.4662455      0              63.100501      2282.1211    
    964000   300.37374     -3.0215355      0              59.83833       2199.738     
    965000   293.52617     -5.0648864      0              56.361974      2106.0675    
    966000   294.81367     -3.5374851      0              58.158812      2161.8565    
    967000   303.54651     -3.1709738      0              60.352865      2192.9411    
    968000   294.97259     -6.6469636      0              55.082592      2060.9782    
    969000   293.95434     -6.1446714      0              55.371792      2025.4542    
    970000   295.97279     -4.0546545      0              57.884216      2063.4053    
    971000   306.5738      -5.2822179      0              58.875148      2110.2429    
    972000   305.7651      -5.216031       0              58.772096      2070.777     
    973000   300.75686     -4.7822894      0              58.157752      2113.6094    
    974000   301.52799     -5.012057       0              58.08936       2066.849     
    975000   303.94911     -3.2278984      0              60.380193      2148.9103    
    976000   296.61394     -5.6781654      0              56.394878      2045.2675    
    977000   292.85516     -4.9966241      0              56.289812      2050.2455    
    978000   304.62232     -3.8734919      0              59.875483      2059.9132    
    979000   304.6188      -4.0324726      0              59.715766      2139.7944    
    980000   308.15199     -3.5490035      0              60.938634      2158.3586    
    981000   294.55443     -4.7586437      0              56.883402      2200.0404    
    982000   310.11847     -4.8067617      0              60.092405      2036.1666    
    983000   289.06165     -5.1077836      0              55.384778      2022.9922    
    984000   302.04615     -4.6458291      0              58.564026      2017.1837    
    985000   294.88446     -6.2206718      0              55.490441      1956.6491    
    986000   297.34457     -3.0955115      0              59.130433      2217.6596    
    987000   292.20522     -4.349959       0              56.800464      2063.2183    
    988000   299.03226     -5.0635224      0              57.51561       2069.7718    
    989000   298.08157     -6.1186479      0              56.26153       1962.7524    
    990000   296.9705      -3.4123464      0              58.735315      2091.2992    
    991000   302.10234     -3.1170966      0              60.104516      2191.0591    
    992000   299.48495     -4.2495543      0              58.424313      2192.6335    
    993000   306.99295     -4.7165266      0              59.528555      2093.049     
    994000   294.98319     -5.204012       0              56.527761      2074.5294    
    995000   306.73702     -4.5627987      0              59.628724      2033.3855    
    996000   301.35083     -5.1729726      0              57.891371      2022.462     
    997000   299.1267      -4.7722679      0              57.826628      2154.8621    
    998000   309.67653     -2.9175969      0              61.889084      2186.3696    
    999000   299.43269     -3.6865209      0              58.97641       2178.135     
   1000000   307.25308     -4.6237346      0              59.675786      2035.6528    
   1001000   305.57631     -4.7490711      0              59.199547      2068.0738    
   1002000   300.12718     -3.1250921      0              59.683175      2159.5157    
   1003000   316.28329     -4.3050518      0              61.884239      2073.9511    
   1004000   299.50102     -4.0127269      0              58.664503      2055.0244    
   1005000   295.24467     -4.2420027      0              57.544492      2132.5334    
   1006000   298.462       -4.8948567      0              57.564936      2143.0379    
   1007000   310.32725     -5.0947178      0              59.848142      2087.5423    
   1008000   291.71329     -4.6836772      0              56.363797      2126.1737    
   1009000   305.34411     -6.2128897      0              57.687137      2020.9941    
   1010000   284.01142     -4.2668146      0              55.168873      2088.7734    
   1011000   294.26674     -5.197481       0              56.38436       2096.05      
   1012000   308.46366     -5.8664577      0              58.686403      2135.0773    
   1013000   293.22757     -4.2028383      0              57.161533      2053.235     
   1014000   298.51699     -5.5813104      0              56.889989      2057.2709    
   1015000   314.31275     -5.038627       0              60.738287      2008.2293    
   1016000   301.65371     -3.7852038      0              59.342524      2069.2823    
   1017000   289.99091     -3.8114177      0              56.875612      2123.1675    
   1018000   296.2229      -5.2605395      0              56.73067       2030.3649    
   1019000   305.77538     -5.4798329      0              58.510446      1984.7276    
   1020000   299.60342     -3.3989187      0              59.29974       2155.0114    
   1021000   303.4983      -6.058816       0              57.454933      2111.281     
   1022000   294.19505     -4.3427297      0              57.224109      2143.4626    
   1023000   295.72168     -3.3033412      0              58.582978      2209.5428    
   1024000   303.36005     -5.1593197      0              58.325497      2087.5929    
   1025000   303.39993     -4.8935318      0              58.599631      2161.6383    
   1026000   306.12447     -3.6502785      0              60.413054      2059.8166    
   1027000   311.65263     -5.3104549      0              59.909769      2159.2601    
   1028000   298.6689      -4.335053       0              58.168038      2056.4117    
   1029000   300.5293      -3.9425975      0              58.949823      2134.1123    
   1030000   303.73808     -3.6589033      0              59.905026      2170.4973    
   1031000   295.01718     -3.0816375      0              58.65725       2051.8236    
   1032000   292.42091     -5.0624098      0              56.13315       2035.8239    
   1033000   292.11498     -3.3102178      0              57.82132       2206.1024    
   1034000   297.7502      -4.5088585      0              57.801974      2170.2701    
   1035000   306.83196     -3.8390941      0              60.372297      2092.8869    
   1036000   291.86056     -4.9751479      0              56.103146      2134.3963    
   1037000   307.97774     -4.190248       0              60.260923      2165.8269    
   1038000   307.08598     -4.5635712      0              59.70098       2118.049     
   1039000   300.86196     -3.2297304      0              59.732306      2167.4588    
   1040000   297.14539     -4.9795562      0              57.204706      2053.2237    
   1041000   303.79146     -4.071078       0              59.504022      2196.7336    
   1042000   293.38623     -4.4791446      0              56.918429      2210.2872    
   1043000   299.41225     -5.231911       0              57.426742      2097.0712    
   1044000   299.27934     -4.0469775      0              58.583862      2070.2461    
   1045000   300.29381     -4.1939214      0              58.649218      2166.2101    
   1046000   311.85633     -4.5008507      0              60.762001      1988.9298    
   1047000   292.47793     -3.9910807      0              57.216412      2070.1332    
   1048000   297.71923     -5.9369745      0              56.367376      2066.4402    
   1049000   300.28686     -5.5513698      0              57.290315      2042.6953    
   1050000   306.12167     -3.9289284      0              60.13382       2168.8105    
   1051000   300.65583     -3.4995484      0              59.41935       2050.0713    
   1052000   304.14154     -4.356453       0              59.291908      2264.8534    
   1053000   299.95578     -4.761026       0              58.011372      2069.5331    
   1054000   303.34396     -3.8706919      0              59.610758      2146.3559    
   1055000   302.51449     -3.1587198      0              60.149144      2146.5443    
   1056000   303.5465      -2.8983915      0              60.625445      2105.1509    
   1057000   304.88352     -4.7981913      0              59.005447      2046.3635    
   1058000   298.97292     -3.7137172      0              58.852996      2047.2279    
   1059000   298.10258     -4.9691685      0              57.415406      1984.0213    
   1060000   300.93908     -3.0322098      0              59.945965      2101.3811    
   1061000   301.89978     -5.2242115      0              57.955012      2103.4727    
   1062000   292.8402      -3.1894157      0              58.093889      2130.3515    
   1063000   299.68595     -4.0473784      0              58.668552      2124.5545    
   1064000   301.13123     -7.7403105      0              55.278077      1987.3175    
   1065000   301.13287     -6.0575606      0              56.96117       2081.5221    
   1066000   291.04392     -4.9001298      0              56.007265      2061.6355    
   1067000   304.97611     -5.9653845      0              57.857629      2021.561     
   1068000   299.50701     -2.9778771      0              59.700607      2160.7544    
   1069000   300.11912     -4.7525496      0              58.054031      2054.1963    
   1070000   297.87563     -3.4959281      0              58.841152      2156.9073    
   1071000   308.92949     -4.8177988      0              59.832547      2020.5651    
   1072000   305.57834     -4.0346095      0              59.914434      2093.7076    
   1073000   295.51158     -3.7654374      0              58.076914      2046.7108    
   1074000   293.64882     -6.4151929      0              55.037335      1979.8498    
   1075000   297.18341     -4.0481641      0              58.144054      2066.7062    
   1076000   299.33307     -3.3543361      0              59.287746      2180.5852    
   1077000   300.88405     -4.698938       0              58.267722      2012.4421    
   1078000   311.39983     -4.4063195      0              60.761         2175.029     
   1079000   301.62074     -4.9310173      0              58.18981       2131.8812    
   1080000   298.95531     -5.0145279      0              57.5485        2068.0575    
   1081000   309.24734     -4.9094964      0              59.807367      2122.0178    
   1082000   296.39053     -5.6877359      0              56.338556      2057.231     
   1083000   296.27426     -5.1359577      0              56.866001      2123.6369    
   1084000   298.65957     -3.1304479      0              59.370691      2232.2154    
   1085000   300.78078     -4.3496072      0              58.595441      2155.2961    
   1086000   293.28474     -3.799512       0              57.576823      2110.2864    
   1087000   306.12985     -4.9711409      0              59.093318      2098.6652    
   1088000   292.07074     -3.5655293      0              57.55675       2161.664     
   1089000   309.0848      -5.0656886      0              59.617159      2166.7444    
   1090000   293.88174     -4.5237628      0              56.977509      2028.5513    
   1091000   312.47192     -4.2599034      0              61.131776      2086.6635    
   1092000   295.25866     -4.5419364      0              57.247486      2116.3507    
   1093000   302.81841     -3.0832333      0              60.288233      2286.1652    
   1094000   304.75034     -5.5562892      0              58.219476      2114.2568    
   1095000   305.88766     -6.9897203      0              57.024056      2016.5806    
   1096000   302.47026     -5.8671709      0              57.431439      2112.6944    
   1097000   295.14469     -5.6028833      0              56.162687      1980.9822    
   1098000   299.54816     -4.535722       0              58.151372      2004.3156    
   1099000   307.21184     -3.2448166      0              61.046072      2181.1846    
   1100000   308.68263     -4.6055357      0              59.993149      2139.4702    
   1101000   306.40524     -3.8040824      0              60.318009      2083.1017    
   1102000   302.56248     -5.2114504      0              58.106459      2108.9601    
   1103000   288.24666     -3.9039851      0              56.41802       2172.6884    
   1104000   297.84711     -4.9804498      0              57.350663      2040.0405    
   1105000   298.04308     -3.8418218      0              58.530301      2097.6779    
   1106000   299.74367     -4.7920014      0              57.936008      2066.8737    
   1107000   299.92233     -4.5456371      0              58.219762      2045.1377    
   1108000   293.6606      -4.6110378      0              56.843955      2127.337     
   1109000   294.99845     -4.6125201      0              57.122446      2003.6144    
   1110000   311.4923      -5.5678581      0              59.618813      2083.2683    
   1111000   296.64206     -4.559051       0              57.519878      2064.6852    
   1112000   299.37295     -4.5596799      0              58.090749      2063.4445    
   1113000   286.03421     -4.5161058      0              55.342895      2069.3557    
   1114000   296.1165      -5.0614924      0              56.907451      1943.2297    
   1115000   293.39121     -3.6575614      0              57.741055      2079.0985    
   1116000   305.26407     -4.0935462      0              59.789729      2030.3635    
   1117000   297.97702     -3.5819503      0              58.776348      2159.8088    
   1118000   307.73858     -3.2842541      0              61.116869      2070.1813    
   1119000   292.15708     -3.8029329      0              57.337414      2134.0572    
   1120000   299.95685     -6.440474       0              56.332149      2027.8973    
   1121000   297.91207     -5.5993434      0              56.745364      2132.7327    
   1122000   298.85494     -4.8845294      0              57.657495      2125.9879    
   1123000   309.7138      -4.6242307      0              60.190251      2161.741     
   1124000   292.24106     -3.4371589      0              57.720762      2047.1415    
   1125000   302.20802     -4.6355953      0              58.608135      2110.3392    
   1126000   298.92545     -3.903911       0              58.652868      2135.2018    
   1127000   295.84643     -4.9871573      0              56.925268      2106.7651    
   1128000   305.40423     -4.3854546      0              59.527154      2101.1316    
   1129000   298.06959     -3.1738038      0              59.203867      2106.8673    
   1130000   297.61074     -3.4776387      0              58.804008      1992.8836    
   1131000   302.39491     -3.2005443      0              60.082297      2219.5395    
   1132000   300.09238     -4.5073815      0              58.293603      2091.9299    
   1133000   301.04885     -4.4865726      0              58.514575      2097.4854    
   1134000   297.8518      -3.7364174      0              58.595677      2161.6838    
   1135000   298.83006     -3.0434359      0              59.49338       2074.6854    
   1136000   299.4448      -2.4407797      0              60.224685      2196.415     
   1137000   303.51476     -3.3520898      0              60.165105      2082.3433    
   1138000   298.79065     -4.8736787      0              57.654889      2150.7349    
   1139000   305.95561     -4.1121264      0              59.91587       2134.1641    
   1140000   299.86025     -3.5813483      0              59.171058      2066.9716    
   1141000   284.07226     -4.3347077      0              55.113712      2082.5041    
   1142000   292.81525     -4.3143759      0              56.963709      2143.175     
   1143000   301.23985     -4.5343186      0              58.506801      2151.9654    
   1144000   294.4581      -5.1014377      0              56.520449      2081.8686    
   1145000   309.83981     -6.1866541      0              58.654198      2071.5618    
   1146000   302.83483     -4.2971741      0              59.077729      2099.0624    
   1147000   309.13674     -3.2947604      0              61.398957      2162.575     
   1148000   302.80821     -3.5551318      0              59.814201      2157.1358    
   1149000   302.42148     -2.9633611      0              60.325039      2192.0891    
   1150000   292.34587     -4.8883806      0              56.291476      2025.7279    
   1151000   302.36863     -3.2006817      0              60.07666       2165.3533    
   1152000   293.03743     -3.4666561      0              57.857925      2089.8717    
   1153000   296.612       -3.2185515      0              58.854086      2021.1084    
   1154000   300.37793     -3.8593275      0              59.001416      2117.0687    
   1155000   297.62252     -3.4821691      0              58.801943      2192.3698    
   1156000   311.32966     -4.1821643      0              60.970471      2140.3943    
   1157000   297.65844     -5.1477371      0              57.143892      2132.6725    
   1158000   302.2446      -5.4263894      0              57.824995      2082.4418    
   1159000   308.05864     -4.6862175      0              59.781885      2013.7251    
   1160000   298.40527     -5.4491548      0              56.998766      2088.4693    
   1161000   312.45192     -6.2410396      0              59.146452      2011.3892    
   1162000   294.20109     -5.8157056      0              55.752396      2024.9316    
   1163000   294.44325     -4.4664291      0              57.152351      2082.0593    
   1164000   298.05754     -5.7715589      0              56.60359       1996.1299    
   1165000   307.82941     -5.5664746      0              58.853655      2145.0671    
   1166000   302.54628     -5.2773365      0              58.037181      2057.1381    
   1167000   300.83857     -3.0002803      0              59.956862      2169.4124    
   1168000   286.27093     -3.3617159      0              56.546824      2099.538     
   1169000   296.08197     -4.7642916      0              57.197426      2121.2055    
   1170000   300.40376     -5.0500509      0              57.816098      2234.2438    
   1171000   299.28077     -4.374352       0              58.256786      2003.3821    
   1172000   299.58805     -6.6102488      0              56.085195      2018.6297    
   1173000   299.72311     -4.8947747      0              57.828932      2103.2377    
   1174000   299.25333     -4.5799878      0              58.045408      2095.6224    
   1175000   314.42546     -4.8244596      0              60.97604       2074.1046    
   1176000   294.28203     -4.6160667      0              56.968974      2192.1628    
   1177000   295.84365     -3.9574686      0              57.954375      2076.0687    
   1178000   296.2232      -4.625625       0              57.365648      2088.8498    
   1179000   307.07266     -4.8962343      0              59.365528      2193.2314    
   1180000   303.47749     -3.828571       0              59.680823      2132.7883    
   1181000   297.4688      -4.2989491      0              57.952995      2074.6946    
   1182000   298.69022     -5.0209637      0              57.486587      2151.1365    
   1183000   295.50196     -4.7939743      0              57.046363      2074.6476    
   1184000   300.67091     -5.4209832      0              57.501073      2056.6421    
   1185000   315.75601     -5.0536923      0              61.025254      2123.2595    
   1186000   298.34043     -2.6906875      0              59.743664      2038.4404    
   1187000   298.34619     -3.5747423      0              58.860814      2198.3654    
   1188000   294.46104     -4.6762018      0              56.9463        2189.825     
   1189000   305.4894      -5.306724       0              58.623706      2139.2624    
   1190000   300.98645     -3.7897847      0              59.198303      2156.9154    
   1191000   296.3635      -5.3899178      0              56.630716      2042.3059    
   1192000   299.47207     -4.6648017      0              58.006371      2130.7042    
   1193000   304.41317     -6.0417954      0              57.663412      2007.352     
   1194000   301.24193     -4.0985929      0              58.94296       2134.7023    
   1195000   306.12606     -4.5967272      0              59.466939      2090.908     
   1196000   299.3596      -5.6161441      0              57.031491      2095.127     
   1197000   297.99358     -4.7800347      0              57.58173       2063.5385    
   1198000   303.69086     -5.2856431      0              58.268403      2113.9394    
   1199000   297.49385     -2.7494724      0              59.507712      2173.1392    
   1200000   302.90495     -4.4041462      0              58.985432      2048.5023    
   1201000   292.59043     -6.5633856      0              54.66765       2014.7525    
   1202000   299.86746     -3.2757384      0              59.478177      2119.868     
   1203000   303.47876     -3.7158973      0              59.793762      2206.4567    
   1204000   297.13266     -5.1806594      0              57.000939      2115.9409    
   1205000   296.88328     -4.1336216      0              57.995789      2139.4268    
   1206000   298.77031     -5.1453364      0              57.378976      2103.4432    
   1207000   301.32708     -3.9122218      0              59.147152      2071.7327    
   1208000   304.44565     -4.6091907      0              59.102813      1985.1511    
   1209000   288.57692     -4.6673736      0              55.723745      2119.2872    
   1210000   298.62898     -5.0998309      0              57.394906      2188.0935    
   1211000   300.91507     -3.4012386      0              59.571912      2157.3193    
   1212000   302.38267     -4.2864145      0              58.993865      2033.759     
   1213000   300.18995     -5.6686698      0              57.152733      2147.9266    
   1214000   293.31465     -4.2494337      0              57.13316       2134.2558    
   1215000   311.16472     -5.4620635      0              59.656055      2128.3747    
   1216000   292.39996     -5.8805481      0              55.310627      1999.5088    
   1217000   309.13625     -2.8784708      0              61.815145      2136.069     
   1218000   293.80574     -4.9828192      0              56.502547      2067.5164    
   1219000   304.1628      -3.5463654      0              60.106446      2072.7528    
   1220000   302.72596     -4.3949304      0              58.957189      2136.8675    
   1221000   297.05909     -5.240005       0              56.926196      2109.2282    
   1222000   298.97558     -2.8939455      0              59.673324      2088.4313    
   1223000   301.8963      -4.7818756      0              58.39662       2105.7504    
   1224000   298.55649     -5.7422839      0              56.737281      2106.4913    
   1225000   298.02913     -4.5147324      0              57.854471      2158.9591    
   1226000   291.81546     -6.248284       0              54.820573      2036.9159    
   1227000   304.39054     -5.8203782      0              57.880092      2029.7721    
   1228000   300.39519     -5.1329112      0              57.731444      2095.0039    
   1229000   292.15476     -3.7003148      0              57.439548      2110.0185    
   1230000   305.49674     -4.3939645      0              59.538002      2042.2977    
   1231000   304.69659     -4.0427909      0              59.721728      2110.3847    
   1232000   304.61982     -5.7403948      0              58.008057      1979.9429    
   1233000   298.07206     -4.060447       0              58.317742      2124.0035    
   1234000   303.28439     -4.2786713      0              59.190314      2048.9213    
   1235000   292.94106     -4.205902       0              57.098511      2063.2918    
   1236000   308.3587      -4.7621171      0              59.768779      2177.3234    
   1237000   298.70905     -4.7832698      0              57.728223      2016.6845    
   1238000   301.08895     -3.2410764      0              59.768463      2177.7215    
   1239000   295.67799     -4.374818       0              57.502357      2091.3861    
   1240000   296.5001      -4.6105689      0              57.438651      2095.9112    
   1241000   307.77058     -5.3201045      0              59.087714      2016.186     
   1242000   306.3743      -5.1190085      0              58.996608      2198.2512    
   1243000   294.29138     -2.5213178      0              59.065679      2254.6359    
   1244000   303.98342     -5.9425668      0              57.672704      2026.6992    
   1245000   299.53157     -4.3924022      0              58.291221      2123.3522    
   1246000   298.24722     -4.1734544      0              58.24139       2147.631     
   1247000   300.0266      -4.1179843      0              58.669234      2125.5657    
   1248000   297.29639     -5.084385       0              57.131478      2083.762     
   1249000   301.31799     -5.3104691      0              57.747003      2062.4192    
   1250000   296.57136     -4.0990134      0              57.965119      2112.3273    
   1251000   293.01023     -4.908865       0              56.410024      2175.4999    
   1252000   294.63289     -4.0495489      0              57.608917      2120.7317    
   1253000   300.33111     -5.1646933      0              57.686251      2122.0733    
   1254000   299.41135     -2.7404715      0              59.917993      2102.7499    
   1255000   296.90142     -5.595733       0              56.537473      2056.3328    
   1256000   301.77175     -5.3692109      0              57.78322       2026.4835    
   1257000   301.77769     -5.2302633      0              57.92341       1993.0633    
   1258000   301.49173     -3.7241564      0              59.369674      2115.3437    
   1259000   295.87298     -4.3178333      0              57.600149      2020.4981    
   1260000   300.89995     -5.3931263      0              57.576861      2093.1484    
   1261000   293.59716     -2.233418       0              59.208299      2250.4518    
   1262000   301.83187     -4.4752703      0              58.689741      2084.6262    
   1263000   295.07604     -3.8086844      0              57.94252       2165.3574    
   1264000   301.92967     -6.11045        0              57.075028      2051.8365    
   1265000   309.89755     -4.4689298      0              60.384005      2186.7086    
   1266000   303.45047     -3.9635094      0              59.540231      2068.375     
   1267000   309.46894     -7.1493607      0              57.613878      2052.4298    
   1268000   301.35043     -4.5421466      0              58.522113      2093.5794    
   1269000   295.80725     -6.8129558      0              55.091271      2029.9249    
   1270000   291.76317     -4.512673       0              56.54524       2106.02      
   1271000   304.23002     -5.0801155      0              58.586762      2061.4904    
   1272000   293.7872      -5.1531593      0              56.328327      2054.068     
   1273000   298.75132     -4.4314315      0              58.088907      2062.7669    
   1274000   293.68157     -3.9806132      0              57.478767      2062.2777    
   1275000   305.39454     -4.6701696      0              59.240409      2119.2648    
   1276000   302.90434     -3.3147214      0              60.074728      2113.7592    
   1277000   305.89098     -4.8431439      0              59.171326      1999.806     
   1278000   299.02034     -2.5948666      0              59.98177       2169.9034    
   1279000   289.62964     -4.2660608      0              56.345364      2113.2966    
   1280000   307.44551     -2.7920101      0              61.54778       2176.4361    
   1281000   301.93231     -6.0314215      0              57.154609      2072.4791    
   1282000   297.89371     -5.7473564      0              56.593509      2017.3442    
   1283000   295.00284     -4.2392176      0              57.496668      2092.4333    
   1284000   308.30198     -5.2375402      0              59.281485      2148.1082    
   1285000   303.70698     -4.7283129      0              58.829107      2116.4259    
   1286000   307.31158     -4.7100811      0              59.601682      2107.3386    
   1287000   297.51066     -4.7569186      0              57.503784      2121.8449    
   1288000   303.02702     -4.3364889      0              59.078634      2090.3384    
   1289000   295.44235     -3.6620085      0              58.165854      2059.5321    
   1290000   300.94171     -2.6910418      0              60.287685      2317.2211    
   1291000   303.43954     -5.7740147      0              57.727439      1976.8825    
   1292000   302.56959     -4.4130115      0              58.906384      2077.7432    
   1293000   308.6302      -6.2433941      0              58.344318      2073.9005    
   1294000   307.54959     -5.760981       0              58.60059       2075.8458    
   1295000   294.37924     -2.4944404      0              59.110943      2214.6309    
   1296000   310.30232     -4.0828901      0              60.854752      2113.1595    
   1297000   305.70906     -4.9074694      0              59.06893       2058.5639    
   1298000   294.85222     -4.1826957      0              57.52167       2058.0247    
   1299000   298.72814     -2.5236485      0              59.99184       2180.2745    
   1300000   285.52502     -4.7267944      0              55.025648      2070.5283    
   1301000   301.39812     -4.868451       0              58.20579       2098.7402    
   1302000   290.41147     -5.2165949      0              55.558445      2061.8555    
   1303000   309.42992     -4.6422813      0              60.112791      2092.9383    
   1304000   307.96675     -5.261443       0              59.187429      2201.6872    
   1305000   294.04112     -5.5247728      0              56.009851      2058.4459    
   1306000   288.17334     -4.6789774      0              55.627683      2107.9506    
   1307000   296.19369     -4.6135914      0              57.371507      2119.7419    
   1308000   294.8308      -2.7395786      0              58.960304      2360.7436    
   1309000   305.76715     -4.0890502      0              59.899505      2130.7233    
   1310000   297.43331     -3.294767       0              58.949749      2162.164     
   1311000   296.45208     -4.3461363      0              57.693035      1983.8385    
   1312000   293.84824     -4.744941       0              56.74932       2110.4169    
   1313000   294.48554     -5.4243304      0              56.2033        2057.898     
   1314000   298.88328     -4.4005966      0              58.147358      2115.4603    
   1315000   309.48086     -4.6711217      0              60.09461       2131.4723    
   1316000   299.50635     -4.7236805      0              57.954664      2125.604     
   1317000   307.06538     -3.4415455      0              60.818695      1981.3343    
   1318000   305.24844     -4.8608708      0              59.019135      2096.9209    
   1319000   302.37264     -4.236541       0              59.04164       2118.704     
   1320000   312.3494      -3.3439344      0              62.022104      2225.0375    
   1321000   300.72355     -3.677738       0              59.255333      2083.1484    
   1322000   296.83544     -3.7244502      0              58.394947      2022.4014    
   1323000   302.12336     -4.5787956      0              58.647218      2033.7373    
   1324000   303.87891     -3.4778652      0              60.115535      2062.6369    
   1325000   287.52499     -4.9363739      0              55.234606      2145.1902    
   1326000   302.45935     -4.0250093      0              59.271316      2095.8144    
   1327000   297.42428     -4.9992364      0              57.243389      2035.6241    
   1328000   290.73738     -2.7499012      0              58.093342      2190.8021    
   1329000   296.63231     -3.9651883      0              58.1117        2148.9988    
   1330000   301.31569     -4.8545058      0              58.202484      2054.4274    
   1331000   295.99613     -4.0037347      0              57.94002       2114.6435    
   1332000   311.51479     -7.3296095      0              57.861768      2007.7751    
   1333000   293.94506     -3.4201832      0              58.094339      2197.9329    
   1334000   298.9344      -4.7689844      0              57.789668      2135.9011    
   1335000   297.79981     -6.1233326      0              56.197881      2017.1475    
   1336000   296.34157     -5.5724505      0              56.443594      2054.1534    
   1337000   290.47451     -6.0540997      0              54.734132      2081.143     
   1338000   297.49397     -4.6675779      0              57.589632      2116.8359    
   1339000   296.84661     -5.0505801      0              57.071155      2069.6196    
   1340000   305.55626     -4.99993        0              58.944492      2069.7913    
   1341000   297.55319     -5.2662519      0              57.003351      2119.1391    
   1342000   307.37307     -3.0738642      0              61.250766      2209.3725    
   1343000   303.10348     -3.6367396      0              59.794385      2145.9884    
   1344000   295.5349      -6.2599829      0              55.587249      2002.7903    
   1345000   296.21149     -4.8082634      0              57.180558      2136.0266    
   1346000   306.0528      -6.2907174      0              57.757618      2011.5131    
   1347000   292.57683     -4.2197606      0              57.00843       2079.8339    
   1348000   296.90608     -4.408154       0              57.726026      2179.029     
   1349000   311.82273     -3.3193168      0              61.936504      2273.1587    
   1350000   293.40894     -5.6857697      0              55.716558      2031.2601    
   1351000   291.14999     -5.4894235      0              55.440167      1994.7889    
   1352000   304.41712     -4.4795781      0              59.226454      2147.9264    
   1353000   300.63225     -4.8630111      0              58.050954      2010.6485    
   1354000   300.81677     -4.1122064      0              58.840373      2037.4522    
   1355000   298.86728     -4.9605497      0              57.584057      2100.6453    
   1356000   296.72113     -4.4165848      0              57.678892      2048.6881    
   1357000   306.22204     -4.5977421      0              59.48601       2132.0053    
   1358000   289.77545     -4.8300832      0              55.811856      2075.6174    
   1359000   305.1115      -4.102558       0              59.748789      2111.9281    
   1360000   298.56684     -4.9125686      0              57.569164      2073.177     
   1361000   290.6945      -4.1687487      0              56.665522      2107.2728    
   1362000   303.55827     -5.8210995      0              57.7052        2018.9425    
   1363000   307.52693     -4.4868309      0              59.869998      2071.1776    
   1364000   296.50842     -6.1414507      0              55.909512      1982.4759    
   1365000   296.58083     -5.9598221      0              56.106293      1939.1798    
   1366000   294.53412     -5.0124996      0              56.625297      2080.0903    
   1367000   308.50549     -6.1181203      0              58.443495      2055.3502    
   1368000   303.36259     -4.0529696      0              59.432379      2164.9973    
   1369000   303.23836     -4.4504653      0              59.008886      2046.3326    
   1370000   293.43464     -4.7110277      0              56.696677      2091.6629    
   1371000   300.70398     -5.7120526      0              57.216923      2157.3074    
   1372000   303.56457     -3.7340438      0              59.793573      2146.3915    
   1373000   297.75976     -4.0235085      0              58.289323      2006.2128    
   1374000   303.82283     -5.0091195      0              58.572544      2046.7411    
   1375000   285.23735     -4.3105235      0              55.381716      2137.2623    
   1376000   289.44513     -3.8318678      0              56.740944      2154.7906    
   1377000   300.11668     -4.7288556      0              58.077214      2142.6372    
   1378000   302.22419     -4.3502676      0              58.896845      2111.0532    
   1379000   315.48853     -4.3509744      0              61.671996      2208.2745    
   1380000   295.60954     -4.3035008      0              57.559351      2070.2201    
   1381000   300.61142     -4.2846203      0              58.624986      2090.3818    
   1382000   298.09816     -4.3703355      0              58.013316      2039.9641    
   1383000   308.47638     -5.1855412      0              59.369981      2059.709     
   1384000   295.11022     -5.3343544      0              56.424003      2070.1589    
   1385000   301.37759     -3.921543       0              59.1484        2059.8598    
   1386000   310.00913     -4.9380917      0              59.938193      2119.5899    
   1387000   302.87529     -4.7081182      0              58.675252      2180.6887    
   1388000   299.7516      -3.8746598      0              58.85501       2115.3476    
   1389000   307.35557     -5.2988344      0              59.022134      2128.9242    
   1390000   295.53946     -2.3082341      0              59.539952      2123.0008    
   1391000   307.46432     -4.5403173      0              59.803409      2048.2463    
   1392000   294.11263     -5.1474689      0              56.402122      2152.7719    
   1393000   297.11461     -4.5988765      0              57.578945      1981.4238    
   1394000   307.52242     -4.1367974      0              60.219089      2187.2251    
   1395000   300.05497     -6.5781657      0              56.214991      2047.553     
   1396000   279.62459     -4.5883133      0              53.929332      2037.7591    
   1397000   299.18658     -4.6079613      0              58.003465      2089.9892    
   1398000   301.54674     -5.7233886      0              57.381954      2085.5345    
   1399000   289.55789     -3.7350148      0              56.861396      2179.9718    
   1400000   313.61305     -3.7356845      0              61.8948        2048.0903    
   1401000   297.58598     -4.7558091      0              57.520656      2142.0048    
   1402000   300.28349     -3.5232375      0              59.317742      2142.6084    
   1403000   290.26609     -4.8538443      0              55.890772      2165.4499    
   1404000   294.99375     -4.0133199      0              57.720663      2010.7745    
   1405000   303.9506      -4.9343231      0              58.674081      2115.9492    
   1406000   298.04585     -5.6775572      0              56.695146      1985.8442    
   1407000   304.60795     -4.6475589      0              59.09841       2127.1634    
   1408000   300.7577      -5.6871146      0              57.253104      2055.171     
   1409000   304.97834     -3.7353214      0              60.088159      2137.8499    
   1410000   287.88956     -3.0317914      0              57.215483      1994.6473    
   1411000   301.51475     -4.9273717      0              58.171276      2128.8959    
   1412000   299.56702     -5.3072645      0              57.383776      2110.8383    
   1413000   304.68713     -4.8769785      0              58.885561      2081.673     
   1414000   290.83151     -4.8274133      0              56.035529      2034.7419    
   1415000   300.97097     -4.4175555      0              58.567295      2175.5309    
   1416000   300.2722      -4.6530612      0              58.185555      2009.3455    
   1417000   296.93099     -4.7788764      0              57.360518      2140.2703    
   1418000   289.23888     -3.3843659      0              57.145284      2110.1205    
   1419000   297.90642     -3.6995382      0              58.643986      1998.1652    
   1420000   296.87698     -4.5839535      0              57.544137      2158.6049    
   1421000   289.67667     -3.695752       0              56.925515      2116.9621    
   1422000   305.58177     -4.1989071      0              59.750854      2000.3247    
   1423000   306.21014     -4.8658026      0              59.21546       2037.9343    
   1424000   301.13429     -4.8159914      0              58.203037      2016.5689    
   1425000   303.90533     -5.1694329      0              58.429497      2013.5257    
   1426000   295.9924      -5.080627       0              56.862346      1991.5832    
   1427000   296.68673     -5.348642       0              56.739636      2154.483     
   1428000   307.23727     -3.6735772      0              60.622635      2009.7499    
   1429000   297.24559     -5.0937624      0              57.111469      1967.4746    
   1430000   301.76438     -5.181494       0              57.969394      2047.0549    
   1431000   298.23054     -4.7095587      0              57.701794      2025.8751    
   1432000   298.83961     -4.6758855      0              57.862931      2068.5168    
   1433000   294.77931     -3.4507619      0              58.238346      2131.2872    
   1434000   295.28035     -4.0015154      0              57.792446      2118.0186    
   1435000   305.12253     -4.6458195      0              59.207835      1952.9203    
   1436000   304.19299     -5.0580765      0              58.601053      2089.2264    
   1437000   296.27622     -4.5126162      0              57.489752      2177.2117    
   1438000   297.62612     -4.6344715      0              57.650395      2114.3294    
   1439000   287.61958     -2.8729978      0              57.317777      2162.5603    
   1440000   305.14979     -3.9831586      0              59.876201      2088.2087    
   1441000   306.2844      -6.4405025      0              57.656299      2139.1496    
   1442000   303.16236     -6.3584786      0              57.084969      2014.1088    
   1443000   301.91572     -5.708949       0              57.473611      2081.2564    
   1444000   289.24632     -4.8091958      0              55.722012      2060.5211    
   1445000   307.71786     -4.4528191      0              59.943966      2030.7098    
   1446000   302.15148     -5.4995324      0              57.732365      2106.4195    
   1447000   291.75996     -3.9029134      0              57.154328      2040.2767    
   1448000   300.20912     -4.9012076      0              57.924208      2117.4391    
   1449000   299.78976     -4.8010118      0              57.936644      2076.3547    
   1450000   314.4499      -4.2150129      0              61.590601      2152.4122    
   1451000   312.23466     -5.83013        0              59.511897      2103.0195    
   1452000   294.06487     -4.3995346      0              57.140061      2121.7654    
   1453000   302.86275     -4.9333226      0              58.447424      2024.4183    
   1454000   290.25164     -2.856799       0              57.884794      2186.2315    
   1455000   301.71083     -5.2745167      0              57.865165      2095.8382    
   1456000   298.32538     -5.8450581      0              56.586143      2087.6594    
   1457000   295.05035     -6.7423192      0              55.003509      1908.4641    
   1458000   295.58928     -4.1570286      0              57.701583      2199.7939    
   1459000   299.74761     -5.4971238      0              57.23171       2011.4579    
   1460000   303.54079     -6.5398302      0              56.982812      1960.766     
   1461000   299.85254     -5.1830736      0              57.567719      2097.3491    
   1462000   292.83096     -4.7781483      0              56.503224      2039.7588    
   1463000   300.95284     -4.9042203      0              58.076834      2224.0733    
   1464000   305.62086     -5.231601       0              58.726342      2112.5517    
   1465000   302.04614     -5.254579       0              57.955273      2110.4321    
   1466000   296.04087     -4.2213229      0              57.731794      2198.1254    
   1467000   295.6061      -4.7188015      0              57.14333       2158.2974    
   1468000   304.76112     -5.9495759      0              57.828446      2134.4372    
   1469000   298.59828     -6.0628933      0              56.425417      2143.751     
   1470000   300.82917     -6.166174       0              56.789001      2017.1811    
   1471000   312.69424     -3.9038993      0              61.534303      2048.9838    
   1472000   298.69843     -5.7956073      0              56.713663      2025.2113    
   1473000   303.24364     -4.1437697      0              59.316686      2046.0915    
   1474000   296.64932     -4.0087045      0              58.071744      2104.765     
   1475000   294.13117     -4.4972265      0              57.056244      2088.9386    
   1476000   291.05705     -3.6489687      0              57.261173      1988.0798    
   1477000   307.49323     -4.8634253      0              59.486351      2097.5244    
   1478000   289.1976      -4.8935155      0              55.627496      2115.053     
   1479000   301.05818     -3.1032611      0              59.899839      2186.07      
   1480000   307.52766     -3.6901815      0              60.666802      2219.1087    
   1481000   297.94445     -5.1837703      0              57.167713      2068.8614    
   1482000   303.3603      -4.2812275      0              59.203643      2123.2325    
   1483000   293.60766     -3.2790258      0              58.164889      2061.3898    
   1484000   285.43703     -4.407835       0              55.326193      2125.8892    
   1485000   297.84341     -4.925887       0              57.404451      2124.484     
   1486000   298.86195     -3.9176405      0              58.625851      2167.563     
   1487000   304.55317     -4.4525923      0              59.281911      2027.637     
   1488000   300.67713     -3.8931939      0              59.030162      2170.9871    
   1489000   295.39205     -4.354247       0              57.463089      2129.5693    
   1490000   301.55293     -5.0779734      0              58.028664      2036.954     
   1491000   303.76706     -5.3860222      0              58.18397       1968.1388    
   1492000   304.96222     -4.1457893      0              59.674318      2166.2417    
   1493000   293.03347     -3.1486828      0              58.175068      2154.0949    
   1494000   301.7507      -4.0240623      0              59.123963      2086.6057    
   1495000   304.88656     -4.3832929      0              59.42098       2037.2105    
   1496000   302.9084      -4.1663351      0              59.223965      2110.8726    
   1497000   296.67035     -4.8393587      0              57.245491      1983.2334    
   1498000   311.57559     -5.9473129      0              59.256788      2037.9644    
   1499000   288.8299      -5.4786382      0              54.965423      2008.5062    
   1500000   301.79258     -3.2778335      0              59.878956      2224.4413    
   1501000   301.60122     -4.6615548      0              58.455188      2127.3928    
   1502000   298.857       -6.2859027      0              56.256551      2102.7576    
   1503000   304.04178     -5.3790063      0              58.248478      1976.6183    
   1504000   290.2252      -3.3291875      0              57.406871      2071.8882    
   1505000   305.24715     -4.3325233      0              59.547211      2118.7808    
   1506000   301.04949     -5.0062581      0              57.995024      2038.8584    
   1507000   290.59582     -5.2530226      0              55.560598      2042.2085    
   1508000   307.76201     -3.7769911      0              60.629035      2172.3009    
   1509000   299.62977     -3.878817       0              58.825357      2122.974     
   1510000   298.28828     -5.2947943      0              57.128643      2108.7546    
   1511000   300.08198     -6.6430652      0              56.155743      1946.9525    
   1512000   281.75021     -5.1300661      0              53.832413      2039.322     
   1513000   300.29179     -3.0301325      0              59.812584      2109.0391    
   1514000   293.08359     -3.6149539      0              57.719285      2023.5541    
   1515000   300.71246     -5.4064748      0              57.524275      2130.3349    
   1516000   301.54047     -3.5747022      0              59.529329      2104.065     
   1517000   313.28198     -5.4062044      0              60.154996      2058.0398    
   1518000   289.89432     -2.6511779      0              58.015636      2185.6874    
   1519000   295.30232     -5.8566067      0              55.941953      2039.7857    
   1520000   296.95991     -6.8739099      0              55.271535      2032.9927    
   1521000   302.97037     -4.3061111      0              59.097157      2067.5162    
   1522000   298.74657     -4.8905784      0              57.628766      1998.58      
   1523000   303.6469      -4.6928997      0              58.851948      2116.1247    
   1524000   307.55232     -3.4649522      0              60.89719       2169.4538    
   1525000   286.68515     -6.0531903      0              53.942035      2023.5672    
   1526000   302.77852     -4.6606847      0              58.702435      2078.3821    
   1527000   298.99704     -3.553798       0              59.017963      2139.2769    
   1528000   302.65098     -4.9902073      0              58.346222      2083.6747    
   1529000   298.91426     -2.4986851      0              60.055753      2168.5423    
   1530000   308.03569     -4.8219658      0              59.641334      2037.5135    
   1531000   302.22308     -4.5395109      0              58.707371      2158.3491    
   1532000   302.18076     -4.0235164      0              59.214508      2201.475     
   1533000   294.11026     -3.0247517      0              58.524342      2045.3502    
   1534000   303.77255     -5.8345995      0              57.736543      2027.9157    
   1535000   302.83768     -5.4531707      0              57.922329      2076.336     
   1536000   307.39254     -5.9208823      0              58.407824      1961.5518    
   1537000   297.63509     -3.9164004      0              58.370343      2215.1785    
   1538000   299.56316     -5.1393678      0              57.550866      1991.2081    
   1539000   298.61791     -5.9488348      0              56.543584      1994.101     
   1540000   291.54761     -7.259222       0              53.75358       1953.8407    
   1541000   285.79001     -4.9705949      0              54.837301      2061.7192    
   1542000   302.39085     -3.7288347      0              59.553156      2131.9197    
   1543000   299.46388     -4.0014631      0              58.667995      2172.5627    
   1544000   300.19186     -5.1888332      0              57.63297       2097.5408    
   1545000   301.35145     -4.9424785      0              58.121994      1973.9632    
   1546000   300.38207     -4.334511       0              58.527098      2085.9692    
   1547000   291.37082     -5.2190848      0              55.756721      2068.5579    
   1548000   305.10898     -3.868684       0              59.982135      2079.7893    
   1549000   298.34446     -2.9370592      0              59.498135      2088.5052    
   1550000   303.46748     -4.0897221      0              59.417577      2171.7751    
   1551000   305.6911      -4.5475054      0              59.425135      2147.8388    
   1552000   299.3129      -5.7532372      0              56.884625      2038.7166    
   1553000   302.28915     -5.9595142      0              57.301193      2080.1114    
   1554000   303.53833     -5.1414577      0              58.38067       1975.2295    
   1555000   305.30292     -5.2152993      0              58.676108      2133.7922    
   1556000   298.09446     -5.3681099      0              57.014765      2127.0873    
   1557000   295.78162     -3.7773048      0              58.121558      2091.9224    
   1558000   304.20499     -5.2210532      0              58.440587      2083.8055    
   1559000   299.06415     -5.4088574      0              57.176947      2073.718     
   1560000   288.84606     -4.1544801      0              56.292962      2149.0994    
   1561000   300.75447     -4.7628277      0              58.176714      2082.1384    
   1562000   305.27293     -3.2998716      0              60.585259      2156.4486    
   1563000   314.21875     -4.6184029      0              61.138838      2026.8569    
   1564000   302.10544     -3.6764838      0              59.545779      2133.1008    
   1565000   300.24162     -5.7633609      0              57.068856      2087.0405    
   1566000   302.20462     -4.2029217      0              59.040095      2194.5413    
   1567000   297.44333     -5.1319565      0              57.114657      2107.182     
   1568000   296.26411     -5.0483563      0              56.951477      2104.4878    
   1569000   301.63635     -4.9695961      0              58.154499      2085.3774    
   1570000   297.86241     -5.3180526      0              57.016263      2148.0268    
   1571000   308.63841     -6.0829442      0              58.506488      2072.2994    
   1572000   293.1646      -3.377451       0              57.973742      2042.5124    
   1573000   294.16036     -4.0045189      0              57.555059      2006.5569    
   1574000   298.23102     -4.9153792      0              57.496076      2041.5885    
   1575000   294.81629     -4.7846054      0              56.91224       2165.4808    
   1576000   303.97287     -5.1641707      0              58.448893      2077.7324    
   1577000   305.26458     -3.0275995      0              60.855784      2266.5304    
   1578000   302.36041     -4.2071354      0              59.068486      2140.5079    
   1579000   301.96806     -5.2838543      0              57.909658      2075.3214    
   1580000   303.88082     -4.7359256      0              58.857875      2090.3657    
   1581000   300.74284     -3.570758       0              59.36635       2341.6227    
   1582000   306.68491     -4.1498928      0              60.030726      2158.2672    
   1583000   303.15156     -3.2173142      0              60.223871      2174.4345    
   1584000   307.43455     -6.0427358      0              58.294762      2050.6608    
   1585000   305.61941     -5.2827922      0              58.674846      1991.0361    
   1586000   291.53871     -4.5619435      0              56.448996      2143.5329    
   1587000   294.98538     -4.2273445      0              57.504888      2021.5716    
   1588000   299.92937     -4.5889714      0              58.1779        2040.9229    
   1589000   295.41578     -4.4308284      0              57.391475      2050.5646    
   1590000   287.60514     -4.4905766      0              55.697176      2052.1986    
   1591000   301.00194     -5.1110602      0              57.88027       2120.6889    
   1592000   306.88339     -4.9676167      0              59.254538      2060.146     
   1593000   302.46585     -5.7776807      0              57.520006      2134.2015    
   1594000   295.57069     -6.774565       0              55.080156      2166.6561    
   1595000   298.7773      -5.2931231      0              57.232652      2027.0667    
   1596000   300.96004     -4.0056196      0              58.976942      2200.4523    
   1597000   299.67921     -3.9369169      0              58.777604      2169.2778    
   1598000   303.35177     -3.0721721      0              60.410913      2072.0923    
   1599000   299.31763     -3.2945919      0              59.344259      2172.8773    
   1600000   291.61988     -5.0157756      0              56.012151      2073.6289    
   1601000   280.17277     -3.2612565      0              55.371107      2138.4725    
   1602000   297.73919     -3.2340561      0              59.074472      2200.0491    
   1603000   300.24251     -3.3248243      0              59.507578      2264.3955    
   1604000   305.0386      -4.3066108      0              59.52948       2125.4038    
   1605000   305.17145     -5.1079407      0              58.755952      2089.2532    
   1606000   296.73069     -4.3359996      0              57.761477      2192.2499    
   1607000   305.11952     -5.2066356      0              58.64639       1982.7412    
   1608000   302.07924     -3.3876137      0              59.829166      2204.4209    
   1609000   296.63421     -4.7980033      0              57.279283      2061.9681    
   1610000   294.9809      -5.3286182      0              56.402677      2008.3377    
   1611000   303.04376     -4.5094965      0              58.909129      2200.9146    
   1612000   296.04957     -4.3425618      0              57.612376      2099.9141    
   1613000   291.31316     -4.6500136      0              56.313725      2186.0249    
   1614000   288.26706     -5.014263       0              55.312011      2059.9824    
   1615000   310.20578     -3.0866548      0              61.830782      2200.572     
   1616000   288.70688     -4.8647378      0              55.55358       2053.7491    
   1617000   295.76321     -5.5826924      0              56.312318      2132.3946    
   1618000   302.32065     -3.2188298      0              60.048471      2208.7675    
   1619000   301.89352     -5.632735       0              57.545178      2022.7116    
   1620000   290.74787     -3.9526446      0              56.892795      2172.9836    
   1621000   304.99391     -4.9457912      0              58.880947      2005.0387    
   1622000   300.76934     -4.8587445      0              58.08391       2015.9952    
   1623000   303.74605     -6.1987436      0              57.366853      2040.2135    
   1624000   306.16856     -4.5773158      0              59.495244      2110.3169    
   1625000   296.8181      -5.741064       0              56.374706      2105.8968    
   1626000   301.44398     -4.4432784      0              58.640559      2064.2326    
   1627000   304.28962     -2.8760989      0              60.803252      2183.9891    
   1628000   299.16599     -4.0497259      0              58.557391      2150.668     
   1629000   306.37905     -5.7614049      0              58.355206      1981.9546    
   1630000   298.06216     -4.1907067      0              58.18541       2143.2517    
   1631000   292.48366     -5.9793594      0              55.229333      2036.7817    
   1632000   301.62153     -4.5754027      0              58.545591      2077.8288    
   1633000   299.04854     -3.7098809      0              58.872658      2133.8077    
   1634000   305.75587     -5.1635923      0              58.822603      2092.0822    
   1635000   300.0126      -4.8977788      0              57.886511      2167.1395    
   1636000   295.6352      -5.4587261      0              56.409494      2109.7635    
   1637000   297.57886     -4.5727247      0              57.702249      2061.1571    
   1638000   293.57352     -5.2168588      0              56.21991       2058.4386    
   1639000   289.16576     -3.0287986      0              57.48555       2103.1455    
   1640000   303.77147     -3.7051276      0              59.865789      2065.5226    
   1641000   304.13251     -5.113395       0              58.533077      2043.1252    
   1642000   309.79228     -5.5718104      0              59.259094      2143.7377    
   1643000   307.31426     -3.795059       0              60.517264      2124.3168    
   1644000   291.95811     -7.1180112      0              53.980697      2033.0704    
   1645000   311.36033     -3.2970409      0              61.862013      2071.6658    
   1646000   295.15302     -3.5369038      0              58.230411      2031.4751    
   1647000   300.9615      -5.047939       0              57.934928      2048.1932    
   1648000   300.96329     -3.5147026      0              59.46854       2201.5648    
   1649000   291.62988     -6.7903783      0              54.239642      2009.1266    
   1650000   295.86476     -6.5045901      0              55.411671      2039.459     
   1651000   301.50721     -6.2325552      0              56.864514      2028.4919    
   1652000   297.3582      -4.3382085      0              57.890589      2109.8597    
   1653000   298.61963     -4.8809493      0              57.611829      2073.5192    
   1654000   290.87517     -5.7882116      0              55.083868      1998.6769    
   1655000   303.89344     -5.3734565      0              58.222985      2114.1261    
   1656000   299.65882     -5.4169838      0              57.29327       2073.0688    
   1657000   297.66561     -4.4061053      0              57.887025      2146.1169    
   1658000   292.33375     -3.6214234      0              57.555896      2111.6968    
   1659000   308.83617     -5.4530377      0              59.17778       2066.7881    
   1660000   292.81157     -5.8755033      0              55.401811      1979.095     
   1661000   290.68069     -4.1701686      0              56.661211      2069.8154    
   1662000   309.3097      -5.2444057      0              59.485508      2180.3469    
   1663000   303.48981     -5.4927006      0              58.019272      2068.0786    
   1664000   300.17791     -5.076498       0              57.742386      2097.8392    
   1665000   299.56631     -4.7406599      0              57.950233      2071.2486    
   1666000   291.87219     -4.7290842      0              56.351643      2003.2177    
   1667000   291.95915     -5.8348885      0              55.264038      2048.0978    
   1668000   297.82851     -5.6397384      0              56.687482      2083.6691    
   1669000   307.22016     -4.5047055      0              59.787925      2119.4634    
   1670000   313.95996     -4.9441465      0              60.758938      2042.5286    
   1671000   306.27594     -5.2573557      0              58.837677      2093.1077    
   1672000   287.74905     -4.827848       0              55.390021      2059.8238    
   1673000   308.03012     -3.7157875      0              60.746346      2208.238     
   1674000   312.31934     -4.8397475      0              60.52          2066.7531    
   1675000   294.70669     -5.0698039      0              56.604105      1998.2953    
   1676000   298.69452     -5.2503519      0              57.258099      2164.8295    
   1677000   297.45769     -5.7884397      0              56.461177      2070.001     
   1678000   301.66442     -6.8713626      0              56.258606      1986.0736    
   1679000   297.18839     -4.5999322      0              57.593329      2068.1944    
   1680000   300.74895     -4.9342457      0              58.004142      2161.6734    
   1681000   301.50789     -5.6444159      0              57.452796      2082.534     
   1682000   309.00031     -6.7608317      0              57.904336      2079.0008    
   1683000   306.12594     -3.8988019      0              60.164839      2187.7316    
   1684000   296.29588     -3.6224838      0              58.384         2101.6856    
   1685000   298.88458     -4.9914495      0              57.556777      2057.2737    
   1686000   292.16959     -5.1974631      0              55.945502      2061.0531    
   1687000   303.8054      -5.3217711      0              58.256247      2141.9406    
   1688000   292.61483     -4.9790289      0              56.257113      2060.9397    
   1689000   297.28419     -4.7201859      0              57.493123      2123.3533    
   1690000   293.44399     -5.9727726      0              55.436889      1993.435     
   1691000   290.79278     -4.9932667      0              55.861571      2064.4457    
   1692000   311.19693     -2.7967048      0              62.328153      2126.7436    
   1693000   304.35634     -3.4792804      0              60.214033      2129.2548    
   1694000   290.24272     -5.646519       0              55.093206      2026.7353    
   1695000   310.10216     -4.0971462      0              60.798608      2083.8294    
   1696000   295.60006     -5.6582048      0              56.202663      2073.9586    
   1697000   306.69425     -4.0475557      0              60.135017      2062.7935    
   1698000   302.48879     -4.9480449      0              58.354442      2082.1103    
   1699000   298.08533     -5.0591872      0              57.321779      2022.9247    
   1700000   308.7146      -2.6021397      0              62.003236      2274.6721    
   1701000   294.02922     -5.0181741      0              56.51396       2042.9296    
   1702000   309.66975     -4.4790206      0              60.326241      2139.4466    
   1703000   290.96436     -3.5978044      0              57.29294       2114.4915    
   1704000   300.72037     -4.396317       0              58.536089      2076.6115    
   1705000   299.27088     -4.5468913      0              58.082177      2013.295     
   1706000   290.8168      -3.7945378      0              57.065326      2107.8767    
   1707000   318.21148     -5.163885       0              61.428923      2100.9055    
   1708000   296.30335     -4.7450902      0              57.262957      2091.4284    
   1709000   307.15208     -4.7601101      0              59.518273      2128.857     
   1710000   296.42514     -4.3042147      0              57.729319      2176.9929    
   1711000   294.41351     -5.2486573      0              56.363898      2066.2253    
   1712000   305.01481     -6.0872372      0              57.743875      2021.8876    
   1713000   303.79259     -4.1039288      0              59.471408      2184.1977    
   1714000   293.56602     -4.2526999      0              57.1825        2136.7629    
   1715000   310.18703     -4.8319267      0              60.081588      1993.2771    
   1716000   298.22268     -7.3242917      0              55.085417      2006.0923    
   1717000   306.12119     -7.2994527      0              56.763195      2008.926     
   1718000   294.92158     -3.6824897      0              58.036391      2138.7846    
   1719000   299.53882     -5.5263283      0              57.158813      2021.6416    
   1720000   298.88138     -4.1289319      0              58.418625      2147.478     
   1721000   296.50368     -5.8281879      0              56.221781      2064.5201    
   1722000   293.7149      -4.5042684      0              56.962088      2126.2383    
   1723000   304.57066     -5.6414993      0              58.096665      2054.8327    
   1724000   300.85292     -3.2763752      0              59.683769      2153.8999    
   1725000   301.86261     -5.1443223      0              58.027124      2104.5624    
   1726000   290.21947     -4.2437107      0              56.491149      2088.9142    
   1727000   302.009       -3.7765008      0              59.42558       2156.3449    
   1728000   304.1677      -3.3694246      0              60.284411      2249.3263    
   1729000   308.56905     -3.3651125      0              61.209803      2111.5607    
   1730000   298.35501     -5.0087394      0              57.428662      2074.9257    
   1731000   299.17063     -4.3568175      0              58.251271      2085.9026    
   1732000   306.33346     -4.1743435      0              59.932725      2071.8769    
   1733000   302.76008     -4.857772       0              58.501489      2024.8716    
   1734000   290.23297     -5.3897967      0              55.347888      2037.2243    
   1735000   296.61436     -3.8863095      0              58.186824      2103.1382    
   1736000   304.34737     -3.4388026      0              60.252634      2056.9792    
   1737000   302.0306      -2.761092       0              60.445508      2110.6414    
   1738000   293.71724     -3.6707751      0              57.796071      2146.2412    
   1739000   299.06996     -4.0563786      0              58.530642      2132.6487    
   1740000   303.66052     -4.0674409      0              59.480257      2070.4306    
   1741000   308.04012     -3.8690011      0              60.595224      2119.1468    
   1742000   294.48147     -3.915347       0              57.711431      2168.4076    
   1743000   305.76052     -4.2881731      0              59.698995      2080.7365    
   1744000   293.07098     -2.6648987      0              58.666702      2270.2844    
   1745000   300.61888     -3.028923       0              59.882244      2191.1081    
   1746000   299.92354     -3.8552581      0              58.910393      2051.1205    
   1747000   289.05125     -5.2158384      0              55.274545      2091.4926    
   1748000   305.22099     -4.6358058      0              59.238455      2084.726     
   1749000   303.81876     -6.2270882      0              57.353725      2051.9088    
   1750000   296.69107     -2.5891247      0              59.500061      2172.0536    
   1751000   296.22326     -3.555596       0              58.435689      2136.7136    
   1752000   294.10856     -4.5083413      0              57.040396      2017.6219    
   1753000   290.88028     -6.5960628      0              54.277086      1982.527     
   1754000   305.08556     -3.3551454      0              60.490774      2212.6114    
   1755000   298.54009     -5.7663929      0              56.70974       1992.2203    
   1756000   311.58145     -4.7937548      0              60.411573      2135.1671    
   1757000   292.41807     -3.7938647      0              57.401101      2088.9037    
   1758000   305.38315     -4.6710863      0              59.237109      2127.9955    
   1759000   295.17341     -5.803347       0              55.968234      2044.3351    
   1760000   299.48697     -6.1288629      0              56.545426      1979.061     
   1761000   304.09927     -5.2727906      0              58.366725      2060.4374    
   1762000   295.47284     -6.4827695      0              55.351475      2068.1236    
   1763000   302.99894     -3.6573318      0              59.751915      2004.8782    
   1764000   307.37595     -3.7704294      0              60.554805      2139.4223    
   1765000   305.29145     -4.4769578      0              59.412048      2115.9989    
   1766000   305.81028     -4.9957806      0              59.001802      1985.8588    
   1767000   296.41919     -5.0790856      0              56.953204      2118.9238    
   1768000   293.31372     -5.303551       0              56.078849      2074.28      
   1769000   304.12356     -6.1185224      0              57.526076      2066.3246    
   1770000   297.43719     -5.5435418      0              56.701786      2022.0869    
   1771000   306.07938     -3.2409833      0              60.812914      2155.425     
   1772000   291.60901     -4.7603087      0              56.265342      2119.4363    
   1773000   290.7115      -5.1274815      0              55.710347      2081.0116    
   1774000   287.57843     -4.6636874      0              55.518477      2026.5252    
   1775000   302.50401     -3.8650115      0              59.44066       2107.5459    
   1776000   298.79831     -3.8240217      0              58.706151      2108.5346    
   1777000   298.6595      -5.051396       0              57.449727      2061.0024    
   1778000   304.10666     -5.1666197      0              58.474442      2073.9921    
   1779000   297.80137     -3.909111       0              58.412428      2083.3198    
   1780000   287.50777     -4.0547729      0              56.112603      2172.2337    
   1781000   292.89652     -5.0178221      0              56.277269      2070.494     
   1782000   296.73159     -3.9608711      0              58.136794      2079.0598    
   1783000   297.63584     -5.2013598      0              57.085541      2073.7278    
   1784000   297.91104     -3.928115       0              58.416375      2092.7592    
   1785000   307.78298     -5.8929644      0              58.51745       2066.7336    
   1786000   300.92949     -6.1409431      0              56.835226      2049.1896    
   1787000   299.32318     -5.1197811      0              57.520231      2044.3712    
   1788000   299.90804     -5.1251474      0              57.63726       2065.1592    
   1789000   297.41112     -3.4917646      0              58.748107      2076.0252    
   1790000   299.70329     -3.838573       0              58.880987      2227.0197    
   1791000   306.80418     -4.1076674      0              60.09791       2122.9979    
   1792000   304.18275     -3.1747471      0              60.482239      2094.4596    
   1793000   293.04998     -3.9898813      0              57.337324      2156.7035    
   1794000   295.73463     -5.1270395      0              56.76199       2097.1401    
   1795000   290.8516      -4.5537206      0              56.313426      2127.1384    
   1796000   294.53292     -4.1324755      0              57.50507       2095.9583    
   1797000   286.50481     -4.2194536      0              55.73803       2013.7598    
   1798000   304.3533      -3.6617721      0              60.030905      2002.1594    
   1799000   297.19623     -4.168477       0              58.026423      2116.911     
   1800000   294.57132     -5.5689541      0              56.076626      2008.7516    
   1801000   299.39301     -4.2790094      0              58.375616      2129.3191    
   1802000   297.44104     -3.6452996      0              58.600833      2156.618     
   1803000   296.46795     -3.9313114      0              58.111182      2102.3351    
   1804000   305.76871     -4.6655178      0              59.323366      2067.7456    
   1805000   295.74535     -4.1464118      0              57.744861      2101.7468    
   1806000   301.78428     -3.7295715      0              59.425481      2122.9845    
   1807000   301.28488     -4.786285       0              58.264257      2066.4321    
   1808000   293.86584     -5.9976794      0              55.500265      2074.1562    
   1809000   296.45108     -5.2633546      0              56.775608      2113.3544    
   1810000   304.3024      -4.49697        0              59.185055      2125.9228    
   1811000   296.19877     -4.4305092      0              57.555653      2062.0175    
   1812000   295.22201     -4.1303366      0              57.651415      2032.8326    
   1813000   305.9068      -5.0317304      0              58.986051      2117.3185    
   1814000   295.18975     -5.0004411      0              56.774561      2003.3992    
   1815000   300.69818     -4.7444438      0              58.183317      2070.9176    
   1816000   301.22261     -2.7242798      0              60.313231      2010.3693    
   1817000   297.1366      -6.0472356      0              56.135188      1964.4358    
   1818000   295.39579     -5.4918749      0              56.326245      1997.4387    
   1819000   301.90493     -4.0768526      0              59.103449      2175.0781    
   1820000   294.73877     -4.4454237      0              57.2352        1947.102     
   1821000   312.48697     -4.6077623      0              60.787065      2123.8223    
   1822000   298.07504     -4.6926779      0              57.686134      2161.7295    
   1823000   302.81951     -3.3209928      0              60.050706      2073.87      
   1824000   298.77065     -5.090533       0              57.43385       2114.3963    
   1825000   291.89692     -4.7234431      0              56.362461      2140.0876    
   1826000   309.31297     -4.7592861      0              59.971312      2052.8808    
   1827000   298.44817     -5.3433604      0              57.113536      2105.3998    
   1828000   310.28659     -5.1977659      0              59.736583      2112.3006    
   1829000   305.30794     -5.0553933      0              58.837064      2070.5594    
   1830000   292.60099     -4.6420877      0              56.591157      2041.2587    
   1831000   303.82899     -4.4034654      0              59.179487      2085.1501    
   1832000   302.80479     -5.6990616      0              57.669555      2100.0634    
   1833000   292.48988     -4.4925045      0              56.717489      2048.1078    
   1834000   297.42852     -5.9625157      0              56.280998      2036.082     
   1835000   291.71604     -5.1302753      0              55.917776      2220.7919    
   1836000   294.47198     -4.4747072      0              57.150085      2078.7201    
   1837000   304.4671      -4.1983868      0              59.518106      2150.3344    
   1838000   295.20817     -3.2892273      0              58.489628      2095.2633    
   1839000   309.33295     -4.4916058      0              60.243173      2080.3219    
   1840000   300.34494     -2.4520661      0              60.401772      2190.5824    
   1841000   300.70919     -3.1822041      0              59.747863      2117.462     
   1842000   298.49369     -5.4917739      0              56.974651      2137.1647    
   1843000   301.2989      -5.6965166      0              57.35696       2072.6005    
   1844000   301.39034     -5.0912774      0              57.981334      2102.8135    
   1845000   306.19966     -4.5120522      0              59.567017      2161.4628    
   1846000   298.47421     -4.2569679      0              58.205378      2061.6585    
   1847000   296.75316     -2.9197658      0              59.182413      2147.4569    
   1848000   300.47646     -4.5456891      0              58.335672      2159.1871    
   1849000   303.24021     -3.8933173      0              59.566422      2070.5872    
   1850000   310.06221     -5.7252502      0              59.162143      2070.2355    
   1851000   300.19373     -3.0622134      0              59.759982      2162.523     
   1852000   298.04836     -6.1235121      0              56.249717      2047.9695    
   1853000   289.07022     -5.1890968      0              55.305257      2007.4943    
   1854000   307.12937     -4.5463919      0              59.727239      2009.7152    
   1855000   292.06803     -4.9899971      0              56.131714      1999.746     
   1856000   304.6116      -4.3257096      0              59.421022      2024.9981    
   1857000   296.09401     -4.5657841      0              57.398454      2095.6862    
   1858000   296.65001     -4.3031529      0              57.777441      2079.7327    
   1859000   302.2589      -6.0930178      0              57.161359      2116.0361    
   1860000   298.39449     -4.1413304      0              58.304333      2155.2362    
   1861000   305.61038     -7.0149256      0              56.940823      2003.8088    
   1862000   318.55557     -4.1731908      0              62.491626      2215.8975    
   1863000   288.61794     -4.5454458      0              55.854258      2075.7154    
   1864000   297.28781     -5.0171964      0              57.19687       2080.7781    
   1865000   284.70918     -4.2897775      0              55.291931      2086.6358    
   1866000   295.85725     -5.0899762      0              56.824715      2040.2874    
   1867000   290.25407     -3.4109525      0              57.331147      2055.8719    
   1868000   305.32616     -3.8690819      0              60.027188      2136.7306    
   1869000   297.86845     -6.0334233      0              56.302155      2015.1105    
   1870000   297.96236     -5.1022014      0              57.25303       2079.3362    
   1871000   301.81824     -4.4479648      0              58.714194      2138.1859    
   1872000   296.49616     -5.4542695      0              56.594126      2008.1258    
   1873000   303.57368     -4.2860143      0              59.243509      2154.5349    
   1874000   295.66894     -5.1421699      0              56.733111      2101.8112    
   1875000   301.68001     -3.6116662      0              59.521566      2267.611     
   1876000   302.39582     -5.5717282      0              57.711302      2076.1551    
   1877000   295.15252     -5.2579468      0              56.509263      2109.8254    
   1878000   300.77227     -5.7356616      0              57.207606      2005.7276    
   1879000   286.14449     -3.5847906      0              56.297288      2085.6044    
   1880000   301.35265     -3.6713554      0              59.39337       2176.524     
   1881000   299.01805     -4.3541915      0              58.221967      2069.2642    
   1882000   299.30731     -7.3618582      0              55.274833      1965.4017    
   1883000   295.20808     -5.051148       0              56.727689      2072.23      
   1884000   306.28941     -4.1623081      0              59.935542      2226.1034    
   1885000   305.77629     -3.3065814      0              60.683887      2110.7895    
   1886000   293.71578     -5.2692026      0              56.197337      2100.0181    
   1887000   292.82696     -5.7390022      0              55.541533      2006.5715    
   1888000   298.75402     -4.0961885      0              58.424715      2006.0021    
   1889000   297.62444     -3.6212381      0              58.663277      2193.3272    
   1890000   300.57474     -4.2993368      0              58.602592      2132.5181    
   1891000   285.79944     -5.9418919      0              53.867979      2055.3393    
   1892000   297.98031     -4.6637313      0              57.695257      2115.7662    
   1893000   297.73715     -3.4578593      0              58.850242      2075.3661    
   1894000   314.18298     -5.1119617      0              60.637794      2072.1675    
   1895000   289.92767     -4.0946001      0              56.579194      2134.1992    
   1896000   295.64384     -6.1931504      0              55.676878      2121.9334    
   1897000   293.68227     -5.084574       0              56.374954      2157.4493    
   1898000   305.55071     -5.4786979      0              58.464563      2135.3688    
   1899000   297.37176     -3.3544136      0              58.877221      2110.5109    
   1900000   307.79413     -3.8320346      0              60.580713      2142.5811    
   1901000   305.47087     -4.9436087      0              58.982944      2144.8789    
   1902000   305.74116     -5.2604743      0              58.722644      2168.7849    
   1903000   308.81588     -5.2260491      0              59.400522      2252.6448    
   1904000   303.21436     -5.0133451      0              58.440984      2100.6425    
   1905000   301.97496     -4.2797691      0              58.915188      2006.5935    
   1906000   303.85021     -4.7847376      0              58.802657      2013.63      
   1907000   302.83277     -5.0538501      0              58.320623      2120.9657    
   1908000   294.792       -6.3061852      0              55.385578      2064.3243    
   1909000   299.51599     -5.3130256      0              57.367338      2082.3907    
   1910000   296.06148     -4.3136688      0              57.643762      2120.6762    
   1911000   297.06468     -4.7674992      0              57.399872      2111.6476    
   1912000   316.26101     -4.1144598      0              62.07017       2093.9432    
   1913000   300.32324     -3.4810133      0              59.368283      2170.6137    
   1914000   295.99425     -3.3042967      0              58.639064      2078.2132    
   1915000   302.27691     -4.9375793      0              58.320568      2100.2827    
   1916000   305.18086     -4.1607093      0              59.705153      2063.2573    
   1917000   293.14453     -4.4427592      0              56.904233      2094.7665    
   1918000   292.25359     -3.9633883      0              57.197157      2049.2851    
   1919000   289.36903     -4.3099011      0              56.246986      2060.2993    
   1920000   297.20612     -3.8433841      0              58.353586      2031.6765    
   1921000   289.85354     -6.9666044      0              53.691676      1946.2401    
   1922000   289.98199     -5.3391617      0              55.346001      2082.7332    
   1923000   293.12773     -6.4015633      0              54.941915      1998.6871    
   1924000   310.64794     -5.2291118      0              59.780859      2054.3231    
   1925000   297.38732     -4.888465       0              57.346426      2066.9984    
   1926000   296.35883     -3.0100884      0              59.009569      2122.7138    
   1927000   286.91216     -3.0153118      0              57.02742       2175.759     
   1928000   297.37544     -4.0384606      0              58.193944      2023.6729    
   1929000   300.12177     -3.2903879      0              59.516747      2184.102     
   1930000   293.34291     -4.0440172      0              57.344493      2076.2663    
   1931000   300.31855     -3.5211985      0              59.327118      2062.4447    
   1932000   292.41901     -3.1895754      0              58.005587      2097.2968    
   1933000   309.05805     -2.7529438      0              61.924306      2155.2242    
   1934000   295.02249     -5.0319622      0              56.708035      2080.635     
   1935000   295.91779     -5.509136       0              56.418223      2056.7507    
   1936000   305.09671     -3.2318812      0              60.616371      2113.3873    
   1937000   300.76057     -3.1362384      0              59.804581      2132.5845    
   1938000   288.27112     -3.2361713      0              57.090952      1957.4617    
   1939000   288.59113     -4.1218344      0              56.27226       2044.7026    
   1940000   291.04724     -4.1795698      0              56.728519      2109.2919    
   1941000   292.45803     -2.9633977      0              58.23993       2130.5181    
   1942000   295.72437     -6.3389378      0              55.547944      2044.2014    
   1943000   297.23922     -4.6980365      0              57.505862      2048.926     
   1944000   300.69417     -4.9877602      0              57.939162      2139.3655    
   1945000   287.27043     -4.552376       0              55.565332      2079.3185    
   1946000   306.66549     -3.731169       0              60.445385      2114.693     
   1947000   293.2824      -4.9148193      0              56.461026      2091.0865    
   1948000   299.64592     -5.6301208      0              57.077433      2020.1235    
   1949000   307.69871     -5.5673098      0              58.825468      2128.1953    
   1950000   304.98124     -6.1481188      0              57.675968      2027.1398    
   1951000   284.44922     -3.8733235      0              55.653983      2043.0977    
   1952000   299.38059     -4.629147       0              58.022881      2126.504     
   1953000   292.58242     -3.7159816      0              57.513378      2153.3503    
   1954000   315.24604     -5.1225998      0              60.849625      2121.1092    
   1955000   286.29336     -2.7632534      0              57.149981      2108.2591    
   1956000   301.11903     -4.079416       0              58.936418      2098.3761    
   1957000   303.25918     -4.1442733      0              59.319434      2137.8801    
   1958000   298.19512     -3.3800789      0              59.023863      2155.2623    
   1959000   299.6297      -5.5452895      0              57.15887       2088.6353    
   1960000   297.99008     -5.9665649      0              56.394466      2001.867     
   1961000   296.22338     -4.4690174      0              57.522294      2016.4263    
   1962000   302.56348     -5.2795814      0              58.038537      2096.5945    
   1963000   298.5934      -6.2568125      0              56.230478      2119.0355    
   1964000   294.146       -3.5936264      0              57.962947      2102.9133    
   1965000   304.80438     -4.7868008      0              59.000275      2112.9013    
   1966000   301.13224     -4.3008797      0              58.71772       2078.6212    
   1967000   306.54608     -3.5424806      0              60.609084      2171.0686    
   1968000   294.84818     -5.0188394      0              56.68468       2031.1139    
   1969000   303.57774     -4.5573178      0              58.973056      2103.9165    
   1970000   299.3575      -6.1297679      0              56.517427      2057.0247    
   1971000   291.64913     -5.660793       0              55.373255      2052.7588    
   1972000   298.0635      -4.6279282      0              57.748468      2045.535     
   1973000   302.33074     -4.0538375      0              59.215573      2057.064     
   1974000   311.56814     -4.6673049      0              60.535237      2195.2065    
   1975000   296.77598     -6.0131744      0              56.093779      2084.119     
   1976000   301.26558     -4.6003208      0              58.446181      2065.5711    
   1977000   310.77373     -4.7190284      0              60.317266      2215.2887    
   1978000   315.44638     -4.1130027      0              61.901147      2169.3673    
   1979000   298.34332     -3.4249689      0              59.009986      2070.8021    
   1980000   295.36983     -4.8753199      0              56.937367      2087.0114    
   1981000   305.07955     -5.432552       0              58.412108      1968.3806    
   1982000   301.55076     -4.8700492      0              58.236133      2110.7394    
   1983000   299.63688     -4.7655929      0              57.940069      2029.1042    
   1984000   307.39481     -2.4861041      0              61.843077      2250.0571    
   1985000   293.91465     -4.8258269      0              56.68233       2061.4532    
   1986000   298.01629     -2.949713       0              59.416805      2163.4607    
   1987000   307.4476      -5.1014706      0              59.238757      2094.8601    
   1988000   289.07615     -3.7520419      0              56.743553      2063.9577    
   1989000   291.40888     -4.1765232      0              56.807248      2130.4758    
   1990000   303.31415     -4.2736752      0              59.201536      2111.1521    
   1991000   317.24796     -5.9916206      0              60.39955       2111.9768    
   1992000   291.89617     -3.7842414      0              57.301506      2073.8221    
   1993000   296.47782     -4.1964756      0              57.848083      2187.9626    
   1994000   305.98997     -3.6677497      0              60.367437      2142.4024    
   1995000   298.45789     -5.2251911      0              57.233741      2102.3866    
   1996000   305.59642     -4.1155436      0              59.837285      2149.1622    
   1997000   293.69425     -4.1371039      0              57.324931      2034.7785    
   1998000   297.71547     -6.0651188      0              56.238445      2025.1983    
   1999000   304.63501     -3.4312133      0              60.320418      2135.9114    
   2000000   308.49692     -4.7235555      0              59.836266      2146.9881    
   2000101   299.89074     -4.8830503      0              57.875738      2166.0856    
Loop time of 14015 on 16 procs for 2000000 steps with 1620 atoms

Performance: 6.165 ns/day, 3.893 hours/ns, 142.704 timesteps/s
99.9% CPU use with 16 MPI tasks x 1 OpenMP threads

MPI task timing breakdown:
Section |  min time  |  avg time  |  max time  |%varavg| %total
---------------------------------------------------------------
Pair    | 10982      | 11928      | 12810      | 587.3 | 85.11
Bond    | 1.5588     | 1.6204     | 1.6824     |   2.9 |  0.01
Neigh   | 16.158     | 16.768     | 17.56      |  11.5 |  0.12
Comm    | 1131.4     | 2013.4     | 2959.5     |1430.4 | 14.37
Output  | 1.1744     | 1.1748     | 1.1772     |   0.1 |  0.01
Modify  | 28.649     | 28.954     | 29.173     |   3.0 |  0.21
Other   |            | 24.8       |            |       |  0.18

Nlocal:         101.25 ave         110 max          92 min
Histogram: 1 0 1 5 0 2 3 1 2 1
Nghost:        5049.44 ave        5090 max        4997 min
Histogram: 1 0 2 1 1 3 4 1 2 1
Neighs:        51643.2 ave       59187 max       45469 min
Histogram: 1 2 2 3 1 3 0 3 0 1

Total # of neighbors = 826291
Ave neighs/atom = 510.05617
Ave special neighs/atom = 0
Neighbor list builds = 10414
Dangerous builds = 0
comm_modify cutoff 27.58
compute myRDF all rdf 1129 cutoff 22.58
fix 2 all ave/time 1 1 1 c_myRDF[*] file ljg2_nvt_44rdf.rdf mode vector
run 0 pre yes post no
Generated 0 of 0 mixed pair_coeff terms from geometric mixing rule
WARNING: Compute rdf cutoff less than neighbor cutoff - forcing a needless neighbor list build (src/compute_rdf.cpp:179)
Neighbor list info ...
  update every 1 steps, delay 0 steps, check yes
  max neighbors/atom: 200000, page size: 2000000000
  master list distance cutoff = 27
  ghost atom cutoff = 27.58
  binsize = 13.5, bins = 4 5 4
  4 neighbor lists, perpetual/occasional/extra = 3 1 0
  (1) pair lj/cut, perpetual
      attributes: half, newton on
      pair build: half/bin/newton
      stencil: half/bin/3d
      bin: standard
  (2) pair gauss/cut, perpetual, copy from (1)
      attributes: half, newton on
      pair build: copy
      stencil: none
      bin: none
  (3) pair gauss/cut, perpetual, copy from (1)
      attributes: half, newton on
      pair build: copy
      stencil: none
      bin: none
  (4) compute rdf, occasional
      attributes: half, newton on, cut 24.58
      pair build: half/bin/newton
      stencil: half/bin/3d
      bin: standard
Per MPI rank memory allocation (min/avg/max) = 3.053e+04 | 3.053e+04 | 3.053e+04 Mbytes
   Step          Temp          E_pair         E_mol          TotEng         Press     
   2000101   299.89074     -4.8830503      0              57.875738      2166.0856    
Loop time of 4.73563e-06 on 16 procs for 0 steps with 1620 atoms

uncompute myRDF
unfix 2
write_data ljg2_nvt_44/ca_md.data nocoeff nofix
System init for write_data ...
Generated 0 of 0 mixed pair_coeff terms from geometric mixing rule
Neighbor list info ...
  update every 1 steps, delay 0 steps, check yes
  max neighbors/atom: 200000, page size: 2000000000
  master list distance cutoff = 27
  ghost atom cutoff = 27.58
  binsize = 13.5, bins = 4 5 4
  3 neighbor lists, perpetual/occasional/extra = 3 0 0
  (1) pair lj/cut, perpetual
      attributes: half, newton on
      pair build: half/bin/newton
      stencil: half/bin/3d
      bin: standard
  (2) pair gauss/cut, perpetual, copy from (1)
      attributes: half, newton on
      pair build: copy
      stencil: none
      bin: none
  (3) pair gauss/cut, perpetual, copy from (1)
      attributes: half, newton on
      pair build: copy
      stencil: none
      bin: none
Total wall time: 3:53:36
