region box block 0 52.794504272175 0 54.794296100667 0 45.195295323908
units metal
dimension 3
boundary p p p
atom_style full
create_box 1 box
Created orthogonal box = (0 0 0) to (52.794504 54.794296 45.195295)
  2 by 4 by 2 MPI processor grid
create_atoms 1 random 1620 43 box
Created 1620 atoms
  using lattice units in orthogonal box = (0 0 0) to (52.794504 54.794296 45.195295)
  create_atoms CPU = 0.003 seconds
mass 1 40.078
pair_style hybrid/overlay lj/cut 25 gauss/cut 25 gauss/cut 25
pair_coeff 1 1 lj/cut 0.009507177838705264 3.7584971993521488
pair_coeff 1 1 gauss/cut 1 -0.0597999248039827 5.991246456844763 0.601172550524922
pair_coeff 1 1 gauss/cut 2 0.0726183915985775 5.919659952808235 0.9307156951487607
run 1
WARNING: No fixes with time integration, atoms won't move (src/verlet.cpp:60)
Generated 0 of 0 mixed pair_coeff terms from geometric mixing rule
Neighbor list info ...
  update every 1 steps, delay 10 steps, check yes
  max neighbors/atom: 2000, page size: 100000
  master list distance cutoff = 27
  ghost atom cutoff = 27
  binsize = 13.5, bins = 4 5 4
  3 neighbor lists, perpetual/occasional/extra = 3 0 0
  (1) pair lj/cut, perpetual
      attributes: half, newton on
      pair build: half/bin/newton
      stencil: half/bin/3d
      bin: standard
  (2) pair gauss/cut, perpetual, copy from (1)
      attributes: half, newton on
      pair build: copy
      stencil: none
      bin: none
  (3) pair gauss/cut, perpetual, copy from (1)
      attributes: half, newton on
      pair build: copy
      stencil: none
      bin: none
Per MPI rank memory allocation (min/avg/max) = 6.988 | 6.996 | 7.009 Mbytes
   Step          Temp          E_pair         E_mol          TotEng         Press     
         0   0              1.015667e+10   0              1.015667e+10   4.9785793e+11
         1   0              1.015667e+10   0              1.015667e+10   4.9785793e+11
Loop time of 0.0128442 on 16 procs for 1 steps with 1620 atoms

Performance: 6.727 ns/day, 3.568 hours/ns, 77.856 timesteps/s
100.0% CPU use with 16 MPI tasks x 1 OpenMP threads

MPI task timing breakdown:
Section |  min time  |  avg time  |  max time  |%varavg| %total
---------------------------------------------------------------
Pair    | 0.0055984  | 0.0078675  | 0.01248    |   1.9 | 61.25
Bond    | 8.08e-07   | 9.4194e-07 | 1.37e-06   |   0.0 |  0.01
Neigh   | 0          | 0          | 0          |   0.0 |  0.00
Comm    | 0.00028389 | 0.0048897  | 0.0071537  |   2.4 | 38.07
Output  | 4.7222e-05 | 5.2082e-05 | 5.5835e-05 |   0.0 |  0.41
Modify  | 1.345e-06  | 1.5263e-06 | 2.332e-06  |   0.0 |  0.01
Other   |            | 3.248e-05  |            |       |  0.25

Nlocal:         101.25 ave         124 max          83 min
Histogram: 1 1 1 3 5 3 0 0 1 1
Nghost:        5096.19 ave        5248 max        4982 min
Histogram: 1 2 2 2 5 0 1 1 1 1
Neighs:        51719.9 ave       63302 max       40470 min
Histogram: 1 0 2 2 3 5 0 1 1 1

Total # of neighbors = 827518
Ave neighs/atom = 510.81358
Ave special neighs/atom = 0
Neighbor list builds = 0
Dangerous builds = 0
thermo 1000
neighbor 2.0 bin
neigh_modify every 1 delay 0 check yes one 200000 page 2000000000
minimize 0.0 1.0e-8 100 1000
Generated 0 of 0 mixed pair_coeff terms from geometric mixing rule
Neighbor list info ...
  update every 1 steps, delay 0 steps, check yes
  max neighbors/atom: 200000, page size: 2000000000
  master list distance cutoff = 27
  ghost atom cutoff = 27
  binsize = 13.5, bins = 4 5 4
  3 neighbor lists, perpetual/occasional/extra = 3 0 0
  (1) pair lj/cut, perpetual
      attributes: half, newton on
      pair build: half/bin/newton
      stencil: half/bin/3d
      bin: standard
  (2) pair gauss/cut, perpetual, copy from (1)
      attributes: half, newton on
      pair build: copy
      stencil: none
      bin: none
  (3) pair gauss/cut, perpetual, copy from (1)
      attributes: half, newton on
      pair build: copy
      stencil: none
      bin: none
Per MPI rank memory allocation (min/avg/max) = 2.29e+04 | 2.29e+04 | 2.29e+04 Mbytes
   Step          Temp          E_pair         E_mol          TotEng         Press     
         1   0              1.015667e+10   0              1.015667e+10   4.9785793e+11
       101   0             -50.65793       0             -50.65793       663.89299    
Loop time of 0.989625 on 16 procs for 100 steps with 1620 atoms

100.0% CPU use with 16 MPI tasks x 1 OpenMP threads

Minimization stats:
  Stopping criterion = max iterations
  Energy initial, next-to-last, final = 
      10156670064.5057  -50.4686746883727  -50.6579297025657
  Force two-norm initial, final = 3.4231745e+11 0.43169627
  Force max component initial, final = 1.7081838e+11 0.047539833
  Final line search alpha, max atom move = 1 0.047539833
  Iterations, force evaluations = 100 109

MPI task timing breakdown:
Section |  min time  |  avg time  |  max time  |%varavg| %total
---------------------------------------------------------------
Pair    | 0.601      | 0.78783    | 0.94398    |   8.4 | 79.61
Bond    | 8.6796e-05 | 9.0947e-05 | 9.5485e-05 |   0.0 |  0.01
Neigh   | 0.0090468  | 0.011209   | 0.012998   |   0.8 |  1.13
Comm    | 0.027848   | 0.18584    | 0.37485    |  17.4 | 18.78
Output  | 4.8421e-05 | 5.087e-05  | 5.323e-05  |   0.0 |  0.01
Modify  | 0          | 0          | 0          |   0.0 |  0.00
Other   |            | 0.004596   |            |       |  0.46

Nlocal:         101.25 ave         113 max          82 min
Histogram: 1 0 1 0 1 3 2 6 0 2
Nghost:           5083 ave        5177 max        4999 min
Histogram: 1 2 2 1 1 4 2 1 1 1
Neighs:        51704.9 ave       60359 max       39336 min
Histogram: 1 0 0 0 4 5 0 3 2 1

Total # of neighbors = 827278
Ave neighs/atom = 510.66543
Ave special neighs/atom = 0
Neighbor list builds = 7
Dangerous builds = 0
timestep 0.0005
fix 1 all nvt temp 300.0 300.0 $(100.0*dt)
fix 1 all nvt temp 300.0 300.0 0.050000000000000002776
fix removeMomentum all momentum 1 linear 1 1 1
dump 1 all custom 1000 ljg2_nvt_43/ca.traj id mol type mass x y z
dump_modify 1 sort id
run 2000000
Generated 0 of 0 mixed pair_coeff terms from geometric mixing rule
Per MPI rank memory allocation (min/avg/max) = 2.289e+04 | 2.289e+04 | 2.289e+04 Mbytes
   Step          Temp          E_pair         E_mol          TotEng         Press     
       101   0             -50.65793       0             -50.65793       663.89299    
      1000   158.71045     -48.12397       0             -14.910289      1147.0685    
      2000   297.18386     -12.220356      0              49.971957      1768.3453    
      3000   297.96871     -7.7807567      0              54.575803      2054.3699    
      4000   299.42112     -7.5302591      0              55.130249      1997.4586    
      5000   307.38289     -6.2211825      0              58.105503      2003.514     
      6000   302.35961     -3.2640887      0              60.011364      2195.0831    
      7000   300.23117     -5.331127       0              57.498904      2083.824     
      8000   301.94345     -6.1486349      0              57.039727      2083.5725    
      9000   307.90261     -4.3782394      0              60.057209      2145.4816    
     10000   307.46321     -4.083139       0              60.260356      2096.7838    
     11000   300.43337     -2.607637       0              60.264709      2094.7905    
     12000   293.17812     -4.4177001      0              56.936322      2181.8363    
     13000   301.93983     -5.1983877      0              57.989218      2109.2769    
     14000   304.62966     -5.824922       0              57.925589      2088.5251    
     15000   302.25026     -4.7256644      0              58.526905      2040.0459    
     16000   306.93221     -4.7924556      0              59.439915      2084.4674    
     17000   289.35901     -4.9701024      0              55.584688      2046.8881    
     18000   291.51491     -5.664595       0              55.341365      2012.4334    
     19000   299.6731      -5.4916366      0              57.221604      2106.5082    
     20000   297.42118     -5.0646484      0              57.177328      2011.4988    
     21000   296.88155     -4.4713378      0              57.657711      2039.871     
     22000   298.18904     -3.0164676      0              59.386201      2187.1714    
     23000   307.33821     -4.6858468      0              59.631489      2107.2658    
     24000   290.6626      -5.5415795      0              55.286015      2044.3273    
     25000   308.50966     -6.3065257      0              58.255961      2083.5398    
     26000   302.92442     -5.5724787      0              57.821174      2021.1706    
     27000   290.96403     -4.3385369      0              56.552138      2082.827     
     28000   302.01459     -3.6690295      0              59.53422       2177.5559    
     29000   299.95671     -4.3671893      0              58.405403      2040.9157    
     30000   297.69036     -4.8835069      0              57.414803      2149.7025    
     31000   295.08827     -6.9225006      0              54.831263      1901.0662    
     32000   298.91461     -3.5166367      0              59.037874      2036.4283    
     33000   307.0364      -2.2926574      0              61.961519      2148.176     
     34000   305.36427     -3.8638263      0              60.040419      2213.537     
     35000   295.09474     -3.5914989      0              58.163619      2062.5435    
     36000   302.62726     -5.8235997      0              57.507865      2057.6502    
     37000   296.85949     -5.7001402      0              56.42429       2104.0724    
     38000   299.05518     -4.300874       0              58.283055      2142.9294    
     39000   303.64976     -5.7829952      0              57.76245       2082.3392    
     40000   295.2335      -3.2258477      0              58.55831       2155.851     
     41000   303.2676      -2.5456199      0              60.91985       2186.1691    
     42000   289.11404     -3.8008721      0              56.702652      2227.9912    
     43000   299.47713     -5.1709662      0              57.501265      2048.2331    
     44000   312.57303     -3.5744565      0              61.838381      2080.2215    
     45000   298.44313     -5.9468462      0              56.508996      2003.8647    
     46000   300.9002      -4.4804549      0              58.489585      2084.7993    
     47000   297.54731     -4.2099259      0              58.058447      2131.6262    
     48000   304.12854     -4.8137482      0              58.831893      2107.1379    
     49000   297.10139     -4.4770928      0              57.69796       2191.7077    
     50000   306.45242     -3.1542001      0              60.977765      2163.3734    
     51000   301.80877     -7.788041       0              55.372137      2040.6413    
     52000   299.19102     -4.6796152      0              57.932741      2029.0957    
     53000   299.10315     -5.9365355      0              56.657431      2162.4027    
     54000   294.66876     -5.6875136      0              55.978458      1925.8449    
     55000   297.64104     -4.1916304      0              58.096357      2053.4893    
     56000   302.55182     -5.0114962      0              58.304181      2138.6186    
     57000   302.91754     -3.6890631      0              59.703149      2157.1124    
     58000   312.86786     -4.565804       0              60.908733      2148.6575    
     59000   300.99903     -5.0997261      0              57.890996      2090.6668    
     60000   304.47379     -5.3193709      0              58.398521      1946.2685    
     61000   288.25445     -4.5013025      0              55.822333      1954.523     
     62000   302.69883     -2.9554645      0              60.390977      2198.4241    
     63000   286.92352     -3.3212191      0              56.723889      2038.8393    
     64000   302.56112     -2.746242       0              60.571382      2167.1187    
     65000   300.68283     -3.4667069      0              59.457842      2203.675     
     66000   305.8431      -5.7732391      0              58.231212      2097.2766    
     67000   299.2174      -4.4757784      0              58.142098      2143.3181    
     68000   298.49625     -4.3039438      0              58.163017      2082.2409    
     69000   288.62258     -3.2675368      0              57.133138      2094.9599    
     70000   296.6867      -3.8945466      0              58.193725      2040.8051    
     71000   295.88792     -3.337193       0              58.583916      2132.4925    
     72000   303.45268     -5.5448642      0              57.959337      2043.9888    
     73000   304.30127     -4.656545       0              59.025244      2084.6531    
     74000   297.4239      -3.3504553      0              58.89209       2063.7203    
     75000   299.47617     -4.3033151      0              58.368713      2250.7646    
     76000   292.02411     -5.5552569      0              55.557264      2024.9171    
     77000   294.54397     -4.942399       0              56.697458      1984.7901    
     78000   299.55175     -5.1105203      0              57.577326      1971.7       
     79000   291.91741     -4.8357762      0              56.254415      2042.5474    
     80000   316.52554     -4.9489246      0              61.291063      2193.444     
     81000   299.72226     -4.149672       0              58.573857      2002.8951    
     82000   310.57795     -2.7446297      0              62.250694      2319.1964    
     83000   304.2487      -3.8254349      0              59.845353      2119.7764    
     84000   297.65924     -3.4700562      0              58.821739      1991.8987    
     85000   295.29208     -3.7769126      0              58.019504      2181.2573    
     86000   309.33041     -3.0337313      0              61.700517      2164.906     
     87000   305.33202     -5.0054562      0              58.89204       2037.8026    
     88000   297.16522     -3.0445316      0              59.14388       2171.1227    
     89000   308.62739     -4.5613328      0              60.025792      2084.6671    
     90000   302.00943     -5.753313       0              57.448857      2089.2878    
     91000   299.29306     -2.9555019      0              59.678208      2043.4058    
     92000   300.74651     -4.9122486      0              58.025628      2023.2317    
     93000   295.73226     -4.3797712      0              57.508762      2111.7415    
     94000   295.6776      -4.2005637      0              57.676531      2027.8942    
     95000   299.0905      -4.5599521      0              58.031368      2199.5564    
     96000   304.79291     -5.2313648      0              58.553311      2055.1589    
     97000   294.37524     -4.6200421      0              56.984506      2092.2855    
     98000   297.93564     -5.2674905      0              57.08215       2102.7554    
     99000   303.40941     -4.6387915      0              58.856356      2085.7562    
    100000   300.71876     -5.537403       0              57.394666      2113.3261    
    101000   292.75549     -5.5442202      0              55.721359      2095.8727    
    102000   294.3004      -4.8557162      0              56.733168      1953.1367    
    103000   296.88219     -5.6464814      0              56.482701      2025.1081    
    104000   315.7351      -4.6445928      0              61.429979      2165.6665    
    105000   302.03284     -5.3938447      0              57.813224      2040.3462    
    106000   306.83996     -4.3825718      0              59.830493      2171.3797    
    107000   300.0467      -3.8655033      0              58.925921      2066.2169    
    108000   300.33563     -5.9153561      0              56.936534      1934.9959    
    109000   298.94448     -3.983896       0              58.576866      2090.1637    
    110000   296.49266     -3.5951312      0              58.452532      2094.1757    
    111000   308.8078      -4.3914024      0              60.233477      2043.2906    
    112000   295.95675     -5.7644453      0              56.171066      2002.3181    
    113000   312.32658     -5.2633444      0              60.097917      1999.6067    
    114000   295.24106     -2.8646061      0              58.921132      2075.1009    
    115000   305.37517     -4.7975114      0              59.109014      2019.5761    
    116000   287.17457     -5.0544682      0              55.043178      2032.0867    
    117000   299.19269     -5.2621619      0              57.350544      2123.119     
    118000   300.01476     -3.8148409      0              58.969901      2110.7441    
    119000   304.91392     -5.4440833      0              58.365916      2027.6353    
    120000   302.85369     -4.9817551      0              58.397095      2024.245     
    121000   290.35979     -3.6329869      0              57.131238      2032.0828    
    122000   293.83129     -5.1427127      0              56.348001      1994.2609    
    123000   304.23872     -3.9576491      0              59.711049      2076.8428    
    124000   293.26329     -4.3244449      0              57.047401      2093.3668    
    125000   292.81083     -3.9483432      0              57.328816      2093.8106    
    126000   297.40355     -6.1130912      0              56.125196      2117.7856    
    127000   298.3992      -4.5288252      0              57.917825      2110.5629    
    128000   293.86877     -3.5358492      0              57.962708      2145.9359    
    129000   311.98459     -6.4015514      0              58.888142      2162.4606    
    130000   296.22045     -2.7644088      0              59.22629       2101.8613    
    131000   292.78126     -5.4129966      0              55.857974      2054.0983    
    132000   299.60696     -6.3110443      0              56.388357      2001.194     
    133000   308.06145     -3.9538844      0              60.514805      2044.842     
    134000   306.85094     -5.0581229      0              59.157241      2132.4278    
    135000   303.92181     -4.2572197      0              59.345159      2142.6139    
    136000   295.96279     -4.404815       0              57.531961      2107.8378    
    137000   301.00911     -4.6412156      0              58.351616      2094.7591    
    138000   307.37314     -6.831757       0              57.492888      2020.1793    
    139000   297.35998     -3.4513692      0              58.7778        2221.6577    
    140000   301.8246      -5.5951273      0              57.568364      2088.2474    
    141000   303.47568     -4.326026       0              59.182989      2087.3288    
    142000   305.16443     -7.0425586      0              56.819865      1960.9911    
    143000   299.86818     -4.1033234      0              58.650744      2015.5066    
    144000   310.86656     -2.9173649      0              62.138355      2184.8192    
    145000   292.73954     -4.96362        0              56.29862       2066.4738    
    146000   300.63382     -4.5474063      0              58.366888      2100.3923    
    147000   306.87721     -3.5778686      0              60.642992      2227.0431    
    148000   304.17869     -4.1505973      0              59.505539      2086.721     
    149000   297.34901     -3.3079116      0              58.918962      2142.4915    
    150000   301.72004     -4.5856627      0              58.555946      1982.1613    
    151000   295.03245     -4.8207854      0              56.921297      2197.7035    
    152000   305.75162     -3.7249308      0              60.260375      2160.9685    
    153000   302.41552     -4.9951676      0              58.291985      2135.8084    
    154000   299.71846     -2.5299395      0              60.192795      2321.3725    
    155000   303.77809     -3.7619583      0              59.810343      2095.2794    
    156000   304.3525      -3.9557502      0              59.736759      2011.9823    
    157000   296.63775     -5.2795083      0              56.798518      2116.0212    
    158000   295.7165      -4.9435867      0              56.941648      2073.0915    
    159000   299.08355     -3.9797858      0              58.61008       2225.8953    
    160000   292.00054     -4.9005775      0              56.20701       2026.6502    
    161000   298.78735     -5.1900824      0              57.337797      1939.0497    
    162000   301.64528     -4.6359864      0              58.489978      2139.58      
    163000   298.55916     -4.0141624      0              58.465962      2227.2773    
    164000   295.70063     -3.7637411      0              58.118173      2140.7432    
    165000   309.79089     -3.4635192      0              61.367093      2174.1133    
    166000   291.571       -6.1048522      0              54.912844      2027.5792    
    167000   301.96547     -4.3160907      0              58.876879      2138.5366    
    168000   292.44319     -4.316186       0              56.884036      2151.5765    
    169000   298.34389     -3.954086       0              58.480989      2069.954     
    170000   305.56656     -3.3115429      0              60.635036      2165.3799    
    171000   304.88682     -4.9931591      0              58.811169      2073.3477    
    172000   297.00777     -4.6512915      0              57.50417       1996.5701    
    173000   303.60428     -2.9393887      0              60.596538      2194.9463    
    174000   297.63452     -5.1600436      0              57.12658       2014.3816    
    175000   299.37558     -5.53973        0              57.11125       2008.107     
    176000   294.79274     -4.488649       0              57.203269      1992.379     
    177000   299.91058     -7.2504689      0              55.51247       2047.9219    
    178000   299.06722     -4.1309706      0              58.455476      2094.567     
    179000   304.11838     -5.2167428      0              58.426772      2098.114     
    180000   293.95349     -4.3449146      0              57.171371      2100.6387    
    181000   302.15762     -5.6808367      0              57.552346      2004.1644    
    182000   305.16033     -4.6580184      0              59.203547      2008.8206    
    183000   298.88366     -4.8055316      0              57.742502      2000.9534    
    184000   303.74515     -4.3339569      0              59.231452      2140.4497    
    185000   302.23409     -4.2444681      0              59.004718      2052.3535    
    186000   302.10556     -3.3537305      0              59.868557      2083.3383    
    187000   307.76466     -3.0540541      0              61.352525      2179.7005    
    188000   296.85304     -5.4241459      0              56.698935      2037.9451    
    189000   300.09556     -4.7905131      0              58.011136      2096.2404    
    190000   302.40349     -5.2590356      0              58.025601      2021.0433    
    191000   288.00455     -5.3919807      0              54.879357      2012.3151    
    192000   297.26629     -3.979866       0              58.229697      2087.7466    
    193000   294.89977     -4.8390004      0              56.875316      2119.4134    
    194000   301.17974     -5.8683986      0              57.16014       2091.3689    
    195000   299.68996     -5.8483343      0              56.868436      2125.4652    
    196000   302.26392     -4.8264951      0              58.428933      2060.9847    
    197000   303.50565     -5.2750305      0              58.240257      2103.1664    
    198000   307.20993     -4.8431286      0              59.447361      2121.8696    
    199000   290.86233     -4.0272272      0              56.842165      2099.8567    
    200000   304.95948     -4.0603648      0              59.759168      2112.0089    
    201000   294.67116     -5.1386386      0              56.527837      2115.7616    
    202000   307.29334     -6.8070691      0              57.500876      2052.3735    
    203000   294.11237     -3.4302541      0              58.119281      2176.4076    
    204000   310.21271     -4.1920917      0              60.726797      2210.3635    
    205000   306.8657      -2.7972031      0              61.42125       2140.2326    
    206000   298.69481     -5.5860438      0              56.922468      2053.6905    
    207000   297.54604     -4.8416101      0              57.426497      2079.2194    
    208000   296.18178     -4.898364       0              57.08424       2080.8113    
    209000   297.39406     -2.645613       0              59.590689      2088.8624    
    210000   298.86068     -6.2336412      0              56.309584      1978.3913    
    211000   301.27232     -3.5892109      0              59.458703      2101.3133    
    212000   313.43741     -6.2920316      0              59.301698      2089.9986    
    213000   291.7353      -4.3694213      0              56.682659      2229.4601    
    214000   297.45581     -5.1350127      0              57.114211      2028.749     
    215000   295.30683     -3.8259992      0              57.973503      2152.8873    
    216000   302.22023     -5.6599452      0              57.586339      2130.9587    
    217000   304.85305     -4.8800837      0              58.917178      1985.4727    
    218000   307.14751     -4.3892648      0              59.888163      2054.4063    
    219000   305.82511     -4.1452359      0              59.85545       2093.7225    
    220000   303.6967      -5.7964496      0              57.75882       2062.7006    
    221000   298.83259     -5.8121287      0              56.725217      2023.7753    
    222000   308.02141     -4.9699142      0              59.490397      2097.4678    
    223000   289.5205      -5.473602       0              55.114983      2032.0433    
    224000   301.73555     -4.6482012      0              58.496654      2077.8984    
    225000   297.69624     -3.6645134      0              58.635026      2105.6091    
    226000   301.60913     -4.3689611      0              58.749437      2127.6115    
    227000   293.09764     -3.4271316      0              57.910049      2109.5374    
    228000   311.19108     -4.1111582      0              61.012475      2106.1291    
    229000   299.66406     -3.6515254      0              59.059825      2111.6906    
    230000   285.83253     -5.7388737      0              54.077922      1970.1086    
    231000   295.44018     -3.8471939      0              57.980216      2126.0004    
    232000   303.61718     -5.54131        0              57.997317      2200.7741    
    233000   296.71879     -3.6533271      0              58.441658      2054.5259    
    234000   304.69157     -6.4284363      0              57.33503       2154.1249    
    235000   307.79553     -2.98002        0              61.43302       2203.8512    
    236000   300.93122     -4.7472002      0              58.22933       2114.8728    
    237000   284.59012     -5.917415       0              53.639379      1944.5585    
    238000   302.19919     -3.9714098      0              59.270471      2208.1217    
    239000   297.532       -3.6127278      0              58.652441      2111.0419    
    240000   310.38242     -6.1588094      0              58.795594      2052.3518    
    241000   290.38922     -3.7786924      0              56.991692      2075.0383    
    242000   299.97519     -4.8261771      0              57.950283      2097.813     
    243000   294.12463     -4.3550937      0              57.197007      2060.4906    
    244000   300.48274     -2.9244953      0              59.958181      2105.5679    
    245000   290.31567     -3.7229556      0              57.032037      2056.0339    
    246000   314.81111     -5.7262234      0              60.154982      2101.5793    
    247000   307.5081      -5.0287831      0              59.324107      2030.9338    
    248000   295.6758      -4.4399384      0              57.43678       2087.4832    
    249000   298.61901     -4.8565408      0              57.636109      2121.6616    
    250000   305.04514     -6.4101731      0              57.427286      2112.5299    
    251000   295.4397      -4.3112405      0              57.516068      2076.2101    
    252000   290.55488     -4.4594511      0              56.3456        2121.7231    
    253000   285.83212     -5.2658514      0              54.550859      2009.9128    
    254000   296.2425      -4.6326944      0              57.362619      2109.9768    
    255000   296.77833     -5.0830648      0              57.024381      2037.8081    
    256000   289.10124     -4.4228481      0              56.077996      2031.778     
    257000   303.83828     -4.6352207      0              58.949676      2052.1229    
    258000   302.0008      -4.5779144      0              58.622449      2063.2803    
    259000   298.22686     -4.7530969      0              57.657486      2075.6985    
    260000   307.3345      -6.0897819      0              58.226778      2023.5688    
    261000   290.27218     -3.6036069      0              57.142283      2133.3607    
    262000   312.55582     -6.1117274      0              59.29751       2098.0057    
    263000   292.24265     -4.0239901      0              57.134264      2104.1968    
    264000   304.37481     -4.475412       0              59.221765      2043.934     
    265000   294.18579     -2.8052469      0              58.759654      2212.8196    
    266000   294.45079     -3.4878073      0              58.132549      2115.5991    
    267000   292.38381     -5.4704893      0              55.717306      2045.0638    
    268000   301.58546     -5.7491546      0              57.36429       2062.1034    
    269000   287.89444     -6.255719       0              53.992577      2032.0502    
    270000   312.80804     -4.4888138      0              60.973205      1978.5288    
    271000   292.41093     -5.3667827      0              55.826689      2065.017     
    272000   309.15484     -4.5334097      0              60.164096      2163.9446    
    273000   307.87386     -4.5320496      0              59.897383      2218.6846    
    274000   288.4663      -5.4359272      0              54.932044      2140.6569    
    275000   296.00045     -4.8278368      0              57.116821      2170.1022    
    276000   302.83013     -4.779198       0              58.594721      2082.6832    
    277000   302.27548     -4.460818       0              58.797029      2113.956     
    278000   302.79399     -4.647766       0              58.718591      2127.6252    
    279000   304.2767      -5.899555       0              57.777091      1987.832     
    280000   301.76111     -4.632814       0              58.51739       2050.0085    
    281000   306.27175     -5.004671       0              59.089484      2195.4881    
    282000   301.20226     -2.4831948      0              60.550058      2140.0369    
    283000   298.79727     -5.9270182      0              56.602937      1950.2798    
    284000   300.33902     -7.0044509      0              55.848148      1970.9223    
    285000   286.56532     -4.5838384      0              55.38631       2065.6661    
    286000   308.83736     -5.1560713      0              59.474995      2139.8427    
    287000   305.57653     -5.3556682      0              58.592998      2119.0879    
    288000   292.31199     -4.3962077      0              56.776559      1961.6721    
    289000   299.01062     -5.6790524      0              56.895551      1974.7517    
    290000   299.28889     -4.7535927      0              57.879243      2152.4451    
    291000   294.56721     -6.3734509      0              55.271269      1958.7036    
    292000   296.03476     -4.6039656      0              57.347873      2139.3223    
    293000   299.69903     -4.5681411      0              58.150526      2096.8578    
    294000   304.46483     -5.2283403      0              58.487677      2120.0619    
    295000   304.5059      -6.4878728      0              57.23674       1959.0336    
    296000   301.97407     -5.0731307      0              58.121639      2090.0623    
    297000   313.1527      -4.7887513      0              60.745395      2194.1731    
    298000   309.64192     -5.125692       0              59.673747      2088.4241    
    299000   295.9396      -3.7238086      0              58.208115      2096.5174    
    300000   305.64538     -4.1351468      0              59.827926      2081.4054    
    301000   301.96347     -3.9238317      0              59.26872       2061.8827    
    302000   295.14157     -3.65778        0              58.107137      2088.7906    
    303000   292.31993     -5.1756342      0              55.998793      2064.1309    
    304000   301.5546      -2.9460165      0              60.16097       2143.6756    
    305000   296.33621     -1.751127       0              60.263796      2166.1135    
    306000   296.26542     -5.6394806      0              56.360628      2082.7394    
    307000   305.18345     -5.5773864      0              58.289019      2065.3349    
    308000   307.03527     -4.7444333      0              59.509504      2146.3883    
    309000   303.93929     -6.2015824      0              57.404455      2064.8501    
    310000   308.08071     -6.3488938      0              58.123826      2052.4542    
    311000   303.51686     -4.7167789      0              58.800853      1937.6983    
    312000   303.89013     -5.4953126      0              58.100435      2110.8121    
    313000   309.93504     -4.8844802      0              59.976299      2144.1053    
    314000   303.97043     -3.7538164      0              59.858737      2113.76      
    315000   303.17717     -4.0529956      0              59.39355       2153.5419    
    316000   291.57014     -5.3531888      0              55.664329      2082.1106    
    317000   296.82633     -4.9306291      0              57.186863      2098.8424    
    318000   298.77462     -5.3626221      0              57.162592      2051.1028    
    319000   293.1784      -5.4480382      0              55.906042      2011.4904    
    320000   294.06965     -3.9290097      0              57.611585      2100.7868    
    321000   299.31862     -4.1433941      0              58.495665      2147.5582    
    322000   300.59377     -5.4617468      0              57.444164      2057.9684    
    323000   306.54002     -5.0690302      0              59.081267      2148.4027    
    324000   303.81349     -3.5980013      0              59.981708      2135.1277    
    325000   308.21807     -6.6009012      0              57.900565      2065.9265    
    326000   294.76462     -6.0658397      0              55.620194      2045.5721    
    327000   303.12458     -5.3808502      0              58.054689      2011.5208    
    328000   291.93777     -4.5302935      0              56.564158      2103.6189    
    329000   298.09954     -3.6499989      0              58.73394       2154.2995    
    330000   296.74142     -3.4220786      0              58.677645      2141.8751    
    331000   299.75695     -4.5616557      0              58.169133      2017.369     
    332000   289.65065     -2.654245       0              57.961577      2114.6495    
    333000   302.13775     -2.235831       0              60.993193      2189.1959    
    334000   290.16077     -3.4684869      0              57.254089      2125.4084    
    335000   307.01298     -5.6833927      0              58.565881      2120.2921    
    336000   296.21702     -4.4969466      0              57.493034      2014.3403    
    337000   305.22237     -3.7750808      0              60.099468      2196.7592    
    338000   303.8993      -3.3424073      0              60.255261      2136.2536    
    339000   297.55645     -2.9346594      0              59.335625      2079.062     
    340000   300.73376     -4.8652603      0              58.069947      2070.0007    
    341000   300.2309      -3.1879872      0              59.641987      2170.7912    
    342000   298.34055     -5.5105401      0              56.923835      2153.1831    
    343000   309.93718     -5.6112214      0              59.250005      2166.2263    
    344000   293.28487     -3.64038        0              57.735983      2209.6846    
    345000   293.69714     -3.4460005      0              58.016638      2113.5204    
    346000   305.38023     -4.3978637      0              59.509721      2052.5474    
    347000   301.0635      -4.3207117      0              58.683501      2159.2755    
    348000   300.94177     -3.7750997      0              59.203638      2013.5565    
    349000   303.78873     -4.542474       0              59.032054      2139.7388    
    350000   301.24981     -4.3232265      0              58.719976      2155.5121    
    351000   292.4468      -4.237118       0              56.96386       2109.158     
    352000   304.84647     -5.2057396      0              58.590145      2152.4472    
    353000   293.14664     -3.8942203      0              57.453215      2110.9671    
    354000   304.46388     -5.3625831      0              58.353236      2136.1774    
    355000   286.3235      -4.6742625      0              55.24528       2104.8156    
    356000   312.13403     -4.2699372      0              61.05103       2112.8183    
    357000   292.79446     -7.0170531      0              54.256681      2028.3544    
    358000   307.04606     -3.9744698      0              60.281726      2050.9945    
    359000   297.15759     -3.5081858      0              58.678629      2144.3839    
    360000   294.01903     -4.4099045      0              57.120097      2168.8356    
    361000   296.49668     -4.7699305      0              57.278574      2092.4893    
    362000   293.31396     -4.8449858      0              56.537463      2151.2481    
    363000   300.22997     -4.7337334      0              58.096046      2091.3046    
    364000   297.20448     -4.4580079      0              57.73862       2096.9738    
    365000   299.1099      -3.7452328      0              58.850147      2131.912     
    366000   305.3726      -4.9105151      0              58.995474      2094.1545    
    367000   292.62753     -4.8300327      0              56.408766      2029.6286    
    368000   303.01106     -4.72545        0              58.686333      2100.4919    
    369000   301.99903     -5.0181906      0              58.181803      2062.7957    
    370000   301.95841     -4.2633087      0              58.928185      2110.9759    
    371000   293.56813     -5.1387179      0              56.296924      2112.1517    
    372000   294.2438      -4.5998822      0              56.977158      2085.1474    
    373000   302.8391      -5.0934242      0              58.282374      2096.4454    
    374000   297.99313     -4.757418       0              57.604252      2056.3811    
    375000   316.23132     -4.9734         0              61.205017      2128.487     
    376000   286.41074     -4.3818754      0              55.555923      2140.3583    
    377000   303.57326     -4.092287       0              59.437148      2187.9892    
    378000   294.36076     -4.5345122      0              57.067005      2102.0434    
    379000   295.2302      -5.4429219      0              56.340544      2024.9743    
    380000   304.85364     -3.4687042      0              60.32868       2140.939     
    381000   297.88074     -7.6719831      0              54.666167      2030.9165    
    382000   301.30655     -3.224762       0              59.830315      2156.0153    
    383000   301.39686     -3.4930041      0              59.580971      2175.0351    
    384000   305.4207      -2.3980485      0              61.518005      2168.3576    
    385000   308.76936     -5.4114763      0              59.205359      2076.0295    
    386000   289.90248     -3.631563       0              57.036959      2064.8904    
    387000   304.3         -4.7424619      0              58.939061      2042.9692    
    388000   303.45461     -4.6316447      0              58.872961      2064.9353    
    389000   304.8108      -4.1692342      0              59.619185      2174.2096    
    390000   297.99128     -6.4587914      0              55.902491      2017.4982    
    391000   291.87497     -5.634166       0              55.447144      2014.9533    
    392000   296.14778     -3.6439506      0              58.33154       2038.899     
    393000   298.07509     -3.7983491      0              58.580474      2081.215     
    394000   299.15591     -2.8875258      0              59.717482      2170.0167    
    395000   305.63153     -5.4752141      0              58.484961      2044.8577    
    396000   311.63461     -5.9566932      0              59.25976       1966.7695    
    397000   301.36083     -3.8636817      0              59.202754      2170.775     
    398000   301.7014      -4.6375532      0              58.500154      2115.5291    
    399000   297.9611      -3.6737081      0              58.681259      2157.2623    
    400000   301.22607     -3.0941769      0              59.944059      2136.4283    
    401000   306.30386     -5.6599984      0              58.440877      2147.8361    
    402000   298.91871     -5.7384252      0              56.816942      2090.7085    
    403000   291.60191     -6.0210499      0              55.003115      2088.73      
    404000   292.13119     -4.3013218      0              56.833607      2141.7635    
    405000   297.12265     -3.1321121      0              59.047391      2086.8742    
    406000   304.70756     -4.4960693      0              59.270744      2031.925     
    407000   297.62287     -4.1045439      0              58.17964       2157.8598    
    408000   303.58166     -4.9308907      0              58.600304      2151.2756    
    409000   304.85108     -4.6958765      0              59.100973      2087.7278    
    410000   296.40714     -5.3177141      0              56.712053      2035.3792    
    411000   295.24228     -5.6677138      0              56.11828       2051.6769    
    412000   320.42158     -3.3659351      0              63.689386      2150.7953    
    413000   300.62247     -4.4246132      0              58.487304      2119.3029    
    414000   294.4523      -3.5634547      0              58.057219      2142.5919    
    415000   298.48166     -3.0554183      0              59.408489      2217.7738    
    416000   295.66665     -4.4170005      0              57.457802      2087.6382    
    417000   300.53682     -4.4244906      0              58.469504      2181.5834    
    418000   299.83179     -4.5018047      0              58.244645      2204.2889    
    419000   300.91654     -3.6470702      0              59.326388      2248.4125    
    420000   299.95652     -3.9041252      0              58.868429      2070.9355    
    421000   296.14639     -5.9945686      0              55.98063       1995.6922    
    422000   289.46417     -5.2726127      0              55.304184      2039.1105    
    423000   302.12165     -4.4493652      0              58.776289      2106.0461    
    424000   290.35847     -4.1608032      0              56.603144      2052.0231    
    425000   309.08595     -4.5866008      0              60.096488      2061.3184    
    426000   297.83994     -3.0931247      0              59.236488      2230.9356    
    427000   311.40655     -4.7600588      0              60.408666      2056.402     
    428000   301.93587     -4.4390601      0              58.747715      2110.4801    
    429000   304.73683     -2.5720237      0              61.200915      2128.4587    
    430000   306.77908     -4.9580035      0              59.242322      1980.6921    
    431000   301.0408      -3.388021       0              59.611441      2120.1974    
    432000   298.67177     -5.1443334      0              57.359358      2083.0257    
    433000   299.07952     -5.1629604      0              57.426061      2159.6632    
    434000   301.9133      -4.8964269      0              58.285626      2156.5924    
    435000   299.44635     -4.7183923      0              57.947396      2028.1683    
    436000   294.89823     -4.7396766      0              56.974318      1961.9718    
    437000   300.97909     -6.4756429      0              56.510907      1975.0146    
    438000   305.84311     -3.855823       0              60.148631      2029.4475    
    439000   300.45561     -2.305332       0              60.571667      2124.9595    
    440000   287.15562     -3.6949506      0              56.398731      2051.3005    
    441000   302.98064     -3.3755974      0              60.029821      2146.5483    
    442000   304.68517     -4.1938438      0              59.568284      2128.3782    
    443000   301.67158     -4.7637156      0              58.367752      2190.2567    
    444000   304.15313     -5.7904421      0              57.860345      2001.1929    
    445000   299.46583     -3.6921798      0              58.977686      2066.5131    
    446000   293.76248     -2.455664       0              59.020649      2275.2034    
    447000   301.69007     -3.7175019      0              59.417835      2118.9422    
    448000   305.10694     -4.766413       0              59.083979      2149.7123    
    449000   304.06651     -4.2322498      0              59.40041       2144.4362    
    450000   292.19666     -4.5182459      0              56.630385      2057.1334    
    451000   300.00826     -4.44375        0              58.339631      2125.698     
    452000   297.40648     -5.0013069      0              57.237594      2125.032     
    453000   304.59371     -5.2886295      0              58.45436       2056.633     
    454000   302.29037     -5.6815482      0              57.579415      2120.9859    
    455000   297.18408     -4.5573056      0              57.635054      2127.1696    
    456000   303.91648     -2.2627223      0              61.338541      2220.1818    
    457000   307.95529     -4.8931384      0              59.553335      2077.9697    
    458000   295.20545     -5.6231507      0              56.155137      2065.148     
    459000   300.22252     -3.244138       0              59.584082      2182.2421    
    460000   308.72831     -5.9123718      0              58.695872      1968.5955    
    461000   305.70151     -4.8608947      0              59.113925      2067.7368    
    462000   301.10093     -5.0203446      0              57.991702      2124.7654    
    463000   281.80703     -4.4511316      0              54.523238      2077.2021    
    464000   304.55888     -4.5030608      0              59.232637      2112.3149    
    465000   298.10943     -5.0332321      0              57.352778      2100.3783    
    466000   301.18546     -5.465001       0              57.564736      2156.4647    
    467000   296.01997     -4.1017121      0              57.847031      2115.6152    
    468000   297.42057     -5.7929153      0              56.448934      2067.6953    
    469000   309.3454      -3.3336683      0              61.403716      2186.2303    
    470000   289.21961     -4.5455045      0              55.980112      2096.3203    
    471000   288.72456     -4.1281563      0              56.293861      2041.9654    
    472000   297.0504      -5.2948843      0              56.869499      2140.4807    
    473000   293.36119     -4.4838672      0              56.908466      2089.3921    
    474000   295.48622     -2.326403       0              59.51064       2061.8191    
    475000   298.73229     -4.1850071      0              58.331348      2166.6272    
    476000   306.24729     -3.7023266      0              60.38671       2129.5612    
    477000   293.69224     -5.9991507      0              55.462463      2073.3114    
    478000   296.11985     -4.2385545      0              57.731091      2155.533     
    479000   305.54587     -6.4671047      0              57.475145      2100.0833    
    480000   305.94935     -4.6576848      0              59.369002      2128.8206    
    481000   295.54478     -4.497639       0              57.351661      1991.4457    
    482000   300.4413      -5.4775389      0              57.396465      2087.7549    
    483000   302.53513     -4.6777609      0              58.634424      2071.6956    
    484000   308.0862      -4.672216       0              59.801652      2070.1509    
    485000   300.53516     -3.9794279      0              58.914219      2141.0796    
    486000   302.10588     -4.2279113      0              58.994443      2097.5229    
    487000   297.42027     -4.9984336      0              57.243354      1950.8474    
    488000   307.72355     -3.8863315      0              60.511645      2173.7958    
    489000   294.67155     -4.6589894      0              57.007566      2133.5935    
    490000   307.09606     -3.1612974      0              61.105363      2219.7275    
    491000   291.64989     -4.0107151      0              57.023492      2125.5165    
    492000   302.41602     -5.1886483      0              58.098611      2008.8378    
    493000   299.42576     -5.7192666      0              56.942213      2046.5089    
    494000   297.56618     -5.0172245      0              57.255097      2096.6754    
    495000   303.3187      -4.4489631      0              59.027202      2102.5678    
    496000   300.37307     -4.66314        0              58.196585      2153.3872    
    497000   303.97516     -6.0626464      0              57.550896      1946.9381    
    498000   302.37159     -4.4609226      0              58.817037      2088.4651    
    499000   296.96103     -4.4468361      0              57.698843      2070.6778    
    500000   297.39541     -6.1416247      0              56.094959      1998.6636    
    501000   289.806       -5.3211728      0              55.32716       2025.9103    
    502000   298.49479     -2.9174346      0              59.549219      2129.7263    
    503000   302.56058     -4.6831891      0              58.634321      2090.2035    
    504000   308.83394     -3.40746        0              61.222889      2067.8844    
    505000   290.52433     -5.4495749      0              55.349083      1968.8055    
    506000   297.58512     -5.1712865      0              57.104999      2110.9952    
    507000   290.84165     -4.3217287      0              56.543336      2084.5065    
    508000   301.90056     -4.7743168      0              58.405069      2013.4131    
    509000   297.37114     -6.7026846      0              55.52882       2103.5477    
    510000   294.12014     -4.8996607      0              56.6515        2075.0751    
    511000   309.37806     -4.0990041      0              60.645216      2144.3089    
    512000   300.50253     -3.7153766      0              59.171442      2160.9196    
    513000   298.30225     -4.6054711      0              57.82089       2082.5575    
    514000   293.41708     -4.748409       0              56.655621      2040.3895    
    515000   294.24745     -5.1943075      0              56.383496      2074.2031    
    516000   301.36684     -5.2347674      0              57.832927      2056.8176    
    517000   305.091       -4.0333014      0              59.813756      2086.5791    
    518000   302.05582     -4.3820918      0              58.829786      2086.3169    
    519000   292.34956     -3.3301294      0              57.850499      2209.4224    
    520000   297.47412     -3.3732288      0              58.879827      2193.3209    
    521000   299.74491     -5.9240098      0              56.804259      2099.5857    
    522000   305.93283     -4.8614857      0              59.161742      2153.4326    
    523000   292.10191     -4.6893631      0              56.439438      2075.841     
    524000   308.20057     -3.9080998      0              60.589703      2094.8585    
    525000   299.10389     -3.3199703      0              59.274152      2121.6333    
    526000   297.6509      -4.0241653      0              58.265886      2080.8154    
    527000   294.49357     -4.5736966      0              57.055614      2072.6519    
    528000   310.88459     -4.7833955      0              60.276099      2162.1743    
    529000   298.27589     -5.3499518      0              57.070893      2074.1398    
    530000   311.15407     -4.3046192      0              60.811271      2213.8559    
    531000   295.20055     -3.3631392      0              58.414122      2129.4466    
    532000   291.87        -5.1126426      0              55.967627      2074.2899    
    533000   303.76637     -3.8002379      0              59.769612      2121.6149    
    534000   307.95213     -5.5866151      0              58.859197      2087.5929    
    535000   297.15882     -3.4824784      0              58.704594      2136.2729    
    536000   284.34068     -3.4087277      0              56.095866      2131.2479    
    537000   303.53069     -4.807957       0              58.712571      2102.833     
    538000   301.46445     -4.2617864      0              58.826335      2135.3225    
    539000   308.28387     -4.3446282      0              60.170608      2184.2218    
    540000   296.7609      -3.9298412      0              58.173959      2013.3337    
    541000   299.44184     -5.424889       0              57.239955      2093.1593    
    542000   299.41101     -5.4901805      0              57.168212      2028.0689    
    543000   297.89903     -4.2181991      0              58.123778      2135.8177    
    544000   304.58333     -4.3649679      0              59.375848      2081.949     
    545000   306.56095     -4.0309599      0              60.123716      2144.6217    
    546000   302.17837     -5.3031726      0              57.934353      2032.2804    
    547000   300.45904     -6.1382015      0              56.739516      2025.5469    
    548000   293.88826     -4.88254        0              56.620095      2080.0429    
    549000   290.73296     -3.8796851      0              56.962634      2140.9664    
    550000   300.62453     -3.7389801      0              59.173369      2195.3845    
    551000   303.28218     -4.5722662      0              58.896256      2094.26      
    552000   309.42444     -6.4975118      0              58.256413      2101.1927    
    553000   311.22765     -5.5717223      0              59.559566      2060.3433    
    554000   302.81577     -4.7040481      0              58.666867      2035.054     
    555000   292.89321     -4.5676492      0              56.72675       2146.8941    
    556000   301.07517     -4.3349495      0              58.671706      2104.9105    
    557000   295.88886     -3.5756716      0              58.345634      2100.0387    
    558000   303.78435     -5.387559       0              58.186053      2027.4789    
    559000   304.46286     -5.0234064      0              58.692199      2140.7795    
    560000   293.06563     -3.7154469      0              57.615036      2141.5797    
    561000   288.7134      -5.0532523      0              55.36643       2188.1795    
    562000   309.31884     -4.5911377      0              60.140689      2099.451     
    563000   296.58668     -4.6495303      0              57.417809      2155.7882    
    564000   297.45764     -5.7012823      0              56.548325      2074.3172    
    565000   289.14211     -5.3849001      0              55.124497      2067.8508    
    566000   301.76697     -4.7245338      0              58.426896      2092.5139    
    567000   289.3528      -5.6054925      0              54.947997      1964.492     
    568000   293.2514      -4.9507095      0              56.418648      2049.7903    
    569000   312.60941     -5.877725       0              59.542726      2054.6554    
    570000   297.18882     -5.0430407      0              57.150309      2082.5879    
    571000   294.9168      -4.5551976      0              57.162683      2059.0189    
    572000   293.90075     -5.3607667      0              56.144483      2084.2082    
    573000   300.63643     -5.165509       0              57.74933       1964.0631    
    574000   304.09089     -5.8787979      0              57.758963      1975.6723    
    575000   285.5974      -4.0463671      0              55.721222      2025.8793    
    576000   301.67397     -6.3344881      0              56.797479      2038.5823    
    577000   304.20976     -5.4515565      0              58.211081      2094.7155    
    578000   297.65893     -3.9486997      0              58.343031      2118.459     
    579000   304.80833     -5.2232972      0              58.564604      2000.8097    
    580000   301.00618     -7.3178482      0              55.674371      1984.9994    
    581000   297.90849     -5.1976613      0              57.146296      2013.9946    
    582000   303.973       -4.5722658      0              59.040824      2147.8495    
    583000   297.28216     -4.9793917      0              57.233492      2109.5591    
    584000   300.65865     -2.9407458      0              59.978745      2121.7512    
    585000   300.25426     -4.8724513      0              57.962411      2189.8665    
    586000   305.99932     -3.3488929      0              60.68825       2210.5016    
    587000   285.96133     -5.8085733      0              54.035176      2056.5978    
    588000   304.12453     -4.0565527      0              59.588248      2163.7423    
    589000   291.96906     -3.985713       0              57.115286      2122.1369    
    590000   304.75077     -4.5171422      0              59.258715      2114.6022    
    591000   307.99278     -7.4763659      0              56.977953      1997.6101    
    592000   301.38397     -4.7175044      0              58.353775      2042.0871    
    593000   291.15307     -5.1350075      0              55.795229      2082.4339    
    594000   304.84933     -4.6215493      0              59.174933      2095.7163    
    595000   298.31303     -5.1850716      0              57.243546      2143.1138    
    596000   309.67195     -5.4524281      0              59.353294      2037.2668    
    597000   310.68841     -3.609554       0              61.408885      2074.7252    
    598000   297.09277     -5.8070134      0              56.366237      1986.811     
    599000   287.87746     -4.8140126      0              55.430729      2031.436     
    600000   294.01711     -5.272745       0              56.256855      2052.8725    
    601000   294.71367     -4.3637228      0              57.311647      2100.1069    
    602000   299.18894     -3.9584432      0              58.653477      2065.9944    
    603000   293.32519     -4.1856342      0              57.199166      2191.2017    
    604000   306.1577      -4.3044872      0              59.765801      2158.9931    
    605000   302.04091     -5.3082773      0              57.90048       2066.4867    
    606000   301.54196     -5.3345268      0              57.769815      2093.8035    
    607000   304.62672     -4.7123283      0              59.037569      2126.6785    
    608000   293.66771     -4.3043096      0              57.15217       2036.4523    
    609000   301.73949     -5.7541054      0              57.391575      2066.4452    
    610000   297.48349     -4.7464367      0              57.508581      1987.7288    
    611000   305.20301     -3.8279526      0              60.042545      2109.9414    
    612000   289.066       -5.4480255      0              55.045445      1988.1715    
    613000   300.7087      -4.8054226      0              58.124541      2151.6118    
    614000   307.33717     -4.473581       0              59.843537      2128.1445    
    615000   294.83843     -3.4165983      0              58.284881      2185.512     
    616000   296.69547     -5.1521512      0              56.937955      1986.4345    
    617000   305.70567     -4.4717384      0              59.503952      2158.6287    
    618000   293.88393     -4.8063751      0              56.695354      2147.9243    
    619000   292.03104     -3.381152       0              57.732818      2131.1552    
    620000   315.07354     -6.7410886      0              59.195036      2025.7174    
    621000   295.98075     -4.4633642      0              57.477171      2062.8948    
    622000   297.0055      -4.621338       0              57.53365       2079.4669    
    623000   299.26685     -5.1353479      0              57.492877      2052.5922    
    624000   297.74205     -4.336558       0              57.972568      2059.8824    
    625000   302.268       -3.893382       0              59.3629        2093.5145    
    626000   296.93525     -5.8075644      0              56.332721      2084.8868    
    627000   303.5229      -6.272556       0              57.246341      2148.0815    
    628000   308.37247     -6.2276448      0              58.306133      2137.2531    
    629000   299.17622     -5.0356557      0              57.573603      2085.2153    
    630000   293.59226     -6.1379902      0              55.302701      1994.8616    
    631000   305.91593     -2.3126653      0              61.707026      2123.0994    
    632000   304.50099     -5.6753995      0              58.048184      1958.1313    
    633000   304.69544     -5.1442153      0              58.620063      2051.7434    
    634000   299.87716     -4.8035537      0              57.952392      2176.8623    
    635000   299.20275     -5.8617266      0              56.753084      2065.6445    
    636000   305.70319     -4.0305298      0              59.944641      2079.3211    
    637000   304.91293     -3.5714918      0              60.238301      2063.9153    
    638000   291.2767      -4.1242946      0              56.831814      2106.348     
    639000   299.57523     -3.8598245      0              58.832935      2087.6013    
    640000   292.32967     -4.5381858      0              56.638279      2109.2232    
    641000   306.45463     -4.1053535      0              60.027073      2116.6973    
    642000   294.51478     -6.1147277      0              55.519021      1990.3472    
    643000   299.19778     -3.2280357      0              59.385735      2157.1191    
    644000   294.27143     -4.2128365      0              57.369986      2088.5788    
    645000   299.99843     -4.034058       0              58.747266      2152.6662    
    646000   301.35703     -3.740009       0              59.325632      2058.4267    
    647000   292.781       -4.5076875      0              56.763229      2075.9918    
    648000   301.74734     -3.3939008      0              59.753421      2044.6112    
    649000   291.54022     -5.8579918      0              55.153264      1967.5633    
    650000   310.97816     -3.3925322      0              61.686544      2165.8114    
    651000   301.82155     -4.2308483      0              58.932005      2083.2375    
    652000   288.04014     -5.0019608      0              55.276826      2037.5139    
    653000   306.60704     -5.5969307      0              58.567391      2175.2087    
    654000   303.37344     -5.467121       0              58.020499      2037.1404    
    655000   299.59885     -3.9323745      0              58.765329      2104.1201    
    656000   299.67729     -2.5387856      0              60.175333      2151.6741    
    657000   295.44405     -6.4502071      0              55.378011      1979.6859    
    658000   301.66942     -4.4069576      0              58.724058      2073.5284    
    659000   293.58371     -4.657506       0              56.781395      2157.5547    
    660000   286.58546     -3.6298127      0              56.34455       2182.2813    
    661000   299.90267     -4.9479938      0              57.813289      2112.9184    
    662000   301.39547     -4.5621673      0              58.511518      2056.2976    
    663000   299.85407     -6.1299882      0              56.621124      2034.7115    
    664000   298.53238     -3.8789725      0              58.595547      2117.8561    
    665000   291.89457     -5.95777        0              55.127641      1973.6695    
    666000   291.57278     -3.4857535      0              57.532317      2177.3162    
    667000   300.05536     -4.91274        0              57.880499      2103.6412    
    668000   296.13292     -3.0957902      0              58.876589      2217.0195    
    669000   304.76288     -5.1762199      0              58.602172      2130.316     
    670000   301.08421     -4.832548       0              58.176         2015.5401    
    671000   303.87172     -5.4449193      0              58.146976      2095.7008    
    672000   305.7133      -5.8243686      0              58.152919      2066.9393    
    673000   299.36923     -4.9710804      0              57.67857       2035.2154    
    674000   305.87913     -4.0341301      0              59.977861      2057.4478    
    675000   301.93853     -4.89983        0              58.287504      2093.3121    
    676000   301.34877     -3.7887217      0              59.275191      2169.8913    
    677000   302.04271     -4.8411256      0              58.36801       2038.551     
    678000   297.91594     -4.5189546      0              57.826562      2090.6138    
    679000   287.548       -4.5740659      0              55.60173       2213.1941    
    680000   296.30135     -4.6442744      0              57.363353      2129.0111    
    681000   305.84029     -6.2067007      0              57.797163      2032.012     
    682000   301.81916     -5.0261055      0              58.136247      2053.2623    
    683000   298.23351     -4.7399369      0              57.672038      2092.2772    
    684000   299.46049     -4.385772       0              58.282976      2175.8281    
    685000   297.607       -3.401222       0              58.879641      2226.9585    
    686000   286.2596      -3.667472       0              56.238697      2115.6547    
    687000   304.73233     -4.1678021      0              59.604196      2142.715     
    688000   290.85923     -3.8256382      0              57.043105      2077.0639    
    689000   302.4281      -4.8193403      0              58.470447      2027.416     
    690000   295.73298     -4.0602971      0              57.828386      2089.3624    
    691000   304.46128     -4.950229       0              58.765044      2094.6331    
    692000   302.8385      -3.2334439      0              60.142228      2277.644     
    693000   306.94385     -3.8295252      0              60.405281      2221.2855    
    694000   291.45244     -4.2932377      0              56.699647      2065.3098    
    695000   294.91058     -3.3297023      0              58.386877      2120.5392    
    696000   301.30803     -4.7684542      0              58.286933      2000.1686    
    697000   297.91675     -5.5931465      0              56.75254       2068.4565    
    698000   300.15259     -5.8402716      0              56.973313      2128.2418    
    699000   302.82287     -4.5946413      0              58.77776       2153.6439    
    700000   286.47091     -3.7529208      0              56.19747       2256.6089    
    701000   296.98563     -5.7253487      0              56.42548       2094.9597    
    702000   293.03124     -4.6528506      0              56.670434      2138.8154    
    703000   303.36715     -6.3701788      0              57.116125      2019.8852    
    704000   288.30097     -5.7447447      0              54.588626      2040.4378    
    705000   297.62247     -4.6542722      0              57.629829      2052.2254    
    706000   295.00534     -5.0804569      0              56.655953      2062.6706    
    707000   307.2222      -3.4374147      0              60.855642      2140.7221    
    708000   302.06397     -5.1232311      0              58.090352      2040.6256    
    709000   289.81408     -3.069108       0              57.580914      2122.5338    
    710000   300.21843     -5.4350531      0              57.392311      2032.0908    
    711000   301.43279     -3.7438651      0              59.33763       2185.3669    
    712000   304.03366     -3.5418657      0              60.083919      2132.1857    
    713000   307.31964     -2.3848874      0              61.928563      2209.7676    
    714000   293.89033     -4.2495084      0              57.253561      2159.5333    
    715000   292.26355     -4.8570155      0              56.305614      2115.4483    
    716000   295.39758     -4.8017123      0              57.016782      2090.3554    
    717000   293.49944     -4.8826287      0              56.538636      2092.1795    
    718000   312.17976     -5.2632225      0              60.067315      2041.5161    
    719000   307.58175     -3.4288937      0              60.939408      2188.3688    
    720000   296.79688     -2.3856016      0              59.725726      2250.3976    
    721000   297.5162      -4.1895725      0              58.072289      2150.9019    
    722000   300.31768     -4.1882862      0              58.659848      2038.3651    
    723000   301.93827     -3.6308286      0              59.55645       2139.8406    
    724000   304.95178     -5.6340081      0              58.183915      2097.0916    
    725000   305.81295     -3.6293728      0              60.368768      2194.605     
    726000   303.37055     -4.6450451      0              58.84197       2112.7025    
    727000   301.19754     -3.5153954      0              59.516869      2124.6745    
    728000   310.60936     -3.801825       0              61.20007       2088.3985    
    729000   305.54882     -4.8767337      0              59.066131      2047.1331    
    730000   301.40282     -5.1485873      0              57.926637      2125.0606    
    731000   304.2406      -4.4377466      0              59.231346      2079.6509    
    732000   293.88987     -7.4206868      0              54.082285      1974.5606    
    733000   304.65382     -4.5926535      0              59.162915      2004.2493    
    734000   296.50748     -5.0550275      0              56.995738      2011.8711    
    735000   304.70834     -4.316685       0              59.450292      2083.0131    
    736000   303.93782     -1.7871357      0              61.818593      2229.9932    
    737000   298.54858     -5.0156366      0              57.462273      2109.4729    
    738000   290.37141     -4.6217439      0              56.144912      2109.944     
    739000   294.72315     -5.3395127      0              56.337843      2047.7252    
    740000   295.60831     -3.8647555      0              57.997838      1973.6429    
    741000   302.93897     -4.6817524      0              58.714944      2128.5265    
    742000   299.32977     -3.481448       0              59.159944      2140.7945    
    743000   303.64998     -4.8155747      0              58.729916      2114.3293    
    744000   300.7355      -3.9789538      0              58.956618      2133.8106    
    745000   302.46522     -3.7012286      0              59.596326      2109.791     
    746000   304.74667     -5.5281155      0              58.246883      2107.5181    
    747000   290.88267     -5.9465275      0              54.927121      2024.4196    
    748000   298.52534     -3.4072258      0              59.065822      2215.0206    
    749000   297.58996     -3.0039812      0              59.273317      2163.7097    
    750000   292.99024     -4.3631098      0              56.951594      2102.2456    
    751000   309.93604     -3.9218128      0              60.939177      2112.0965    
    752000   297.76209     -3.8181116      0              58.495209      2076.0305    
    753000   295.2772      -4.0337038      0              57.759598      2029.8615    
    754000   297.21581     -4.2366539      0              57.962344      2130.2043    
    755000   296.17997     -5.1436887      0              56.838538      2107.6665    
    756000   317.54983     -4.9891132      0              61.465231      2144.1535    
    757000   294.85225     -5.1657154      0              56.538655      2171.7065    
    758000   301.30014     -4.7428112      0              58.310924      2052.3598    
    759000   286.43461     -5.5786026      0              54.364192      2047.4009    
    760000   296.46045     -4.9339848      0              57.106937      2036.0491    
    761000   297.29527     -3.8539321      0              58.361695      2077.5707    
    762000   307.11314     -4.4751788      0              59.795055      2153.1438    
    763000   297.45736     -3.5858054      0              58.663743      2039.4493    
    764000   303.31318     -3.5033692      0              59.971639      2146.597     
    765000   301.63792     -4.3096325      0              58.814792      2037.6778    
    766000   291.58278     -5.3675855      0              55.652576      2013.4458    
    767000   296.41059     -5.3444545      0              56.686034      1996.7526    
    768000   295.06712     -3.6591128      0              58.090225      2115.4027    
    769000   295.01909     -4.271746       0              57.46754       2093.4702    
    770000   293.75734     -4.5709081      0              56.90433       2036.5901    
    771000   293.22037     -3.7498738      0              57.61299       2067.7465    
    772000   307.73867     -6.3000193      0              58.101122      1979.3322    
    773000   294.86339     -5.6921515      0              56.014551      2064.0625    
    774000   304.2399      -5.595962       0              58.072984      2094.8052    
    775000   299.35944     -4.5811764      0              58.066424      2013.8605    
    776000   289.44973     -3.8969183      0              56.676856      2084.7618    
    777000   289.14782     -2.7149911      0              57.795601      2183.1823    
    778000   306.59841     -5.0758162      0              59.086701      2034.8471    
    779000   301.50949     -3.8463205      0              59.251227      2196.1431    
    780000   293.50197     -4.1950846      0              57.22671       2096.2162    
    781000   299.10492     -4.3178096      0              58.276528      2103.4203    
    782000   298.49469     -5.1247031      0              57.34193       2120.3699    
    783000   304.13083     -4.1273169      0              59.518803      2106.022     
    784000   298.4841      -4.6371742      0              57.827243      2042.002     
    785000   305.34163     -5.9819788      0              57.917528      2058.4213    
    786000   303.08627     -4.6316961      0              58.795827      2117.4048    
    787000   315.52408     -4.4419295      0              61.588481      2103.2219    
    788000   290.57829     -4.7721334      0              56.037817      2068.9904    
    789000   305.30982     -4.2186226      0              59.674228      2034.7346    
    790000   297.37339     -5.3234651      0              56.908511      2032.6981    
    791000   292.42753     -4.5557975      0              56.641148      2076.9021    
    792000   293.95899     -4.2208044      0              57.296633      2100.762     
    793000   312.16064     -5.9657267      0              59.360809      2056.8544    
    794000   302.01649     -3.7501618      0              59.453486      2158.2305    
    795000   311.4854      -4.1350625      0              61.050164      2173.4162    
    796000   298.29699     -5.4046069      0              57.020652      1979.7828    
    797000   311.11725     -5.5220085      0              59.586176      2170.3205    
    798000   290.1254      -5.3957         0              55.319474      2061.7442    
    799000   296.37998     -3.2809658      0              58.743118      2268.649     
    800000   304.39123     -5.0281059      0              58.672508      1999.7662    
    801000   303.22276     -6.852383       0              56.603704      1930.5831    
    802000   303.91424     -5.24713        0              58.353664      2119.9078    
    803000   302.08235     -4.0493181      0              59.168112      2104.0089    
    804000   293.54486     -4.0510204      0              57.379751      2033.3293    
    805000   304.98409     -6.0423559      0              57.782328      2060.5307    
    806000   300.37594     -5.0232077      0              57.837119      2054.6194    
    807000   288.92075     -5.2289363      0              55.234137      2050.6549    
    808000   296.37928     -4.451174       0              57.572763      2026.8696    
    809000   299.63588     -3.824253       0              58.8812        2118.1321    
    810000   295.83087     -5.158766       0              56.750403      2057.8708    
    811000   302.90717     -3.9048173      0              59.485224      2209.3187    
    812000   302.4679      -5.2710628      0              58.027053      2174.7005    
    813000   312.75477     -4.9573581      0              60.493512      2083.3452    
    814000   290.97056     -3.6364354      0              57.255607      2057.2613    
    815000   288.50503     -5.6831524      0              54.692922      1998.5526    
    816000   303.6654      -4.8027216      0              58.745998      2041.0897    
    817000   298.90302     -3.8952863      0              58.6568        2045.8925    
    818000   305.00226     -4.3002093      0              59.528276      2140.6792    
    819000   294.00857     -4.1749076      0              57.352905      2114.744     
    820000   305.30334     -4.3496556      0              59.541839      2110.1827    
    821000   296.82422     -5.0500829      0              57.066968      2042.6626    
    822000   299.0417      -3.4627656      0              59.118342      2179.6746    
    823000   293.48573     -4.0903652      0              57.328031      2117.8215    
    824000   312.67471     -4.1010513      0              61.333065      2136.8954    
    825000   311.36407     -3.7473618      0              61.412474      2124.6717    
    826000   289.7138      -4.7681759      0              55.860861      2216.485     
    827000   291.7871      -3.8915892      0              57.171331      2096.9013    
    828000   300.16885     -4.8413403      0              57.975648      2115.6517    
    829000   301.66614     -4.533926       0              58.596404      2133.5692    
    830000   297.33        -5.3468094      0              56.876087      2072.6146    
    831000   296.00924     -4.9201718      0              57.026326      2067.3017    
    832000   295.97563     -3.8215161      0              58.117949      2142.452     
    833000   307.75508     -4.2675358      0              60.13704       2162.4081    
    834000   309.26688     -5.121684       0              59.599269      2067.3862    
    835000   289.86398     -3.5805488      0              57.079916      2107.1776    
    836000   306.10742     -4.7184942      0              59.341271      2078.0605    
    837000   286.08789     -5.427598       0              54.442636      2060.6655    
    838000   311.02574     -6.0642995      0              59.024733      1973.4432    
    839000   300.25937     -4.7932203      0              58.042712      2061.9627    
    840000   297.49131     -3.5371298      0              58.719524      2113.2548    
    841000   285.3822      -2.8770695      0              56.845484      2128.2759    
    842000   292.82033     -5.943929       0              55.335218      2165.8935    
    843000   294.01435     -3.6427034      0              57.88632       2102.2694    
    844000   294.66838     -5.54493        0              56.120962      1982.9807    
    845000   308.86743     -4.1095818      0              60.527778      2092.5766    
    846000   305.39838     -4.669877       0              59.241506      2127.1308    
    847000   316.90788     -3.8594073      0              62.460594      2172.9015    
    848000   295.67209     -5.3493116      0              56.526629      2058.8751    
    849000   301.27083     -3.0537346      0              59.993868      2156.7615    
    850000   289.51956     -2.527985       0              58.060403      2257.5594    
    851000   304.07225     -5.8896178      0              57.744242      2092.3424    
    852000   291.54141     -4.4571941      0              56.554311      2063.5663    
    853000   316.23808     -5.6453654      0              60.534466      2122.8037    
    854000   289.09024     -5.0876161      0              55.410926      2124.1768    
    855000   310.67649     -3.2337358      0              61.782209      2205.4565    
    856000   299.00722     -6.8876205      0              55.686272      1994.1932    
    857000   303.59174     -4.4385636      0              59.094739      2044.8631    
    858000   294.04612     -2.5666924      0              58.968978      2136.8516    
    859000   305.29319     -5.3410754      0              58.548295      2071.0768    
    860000   291.75046     -5.3495586      0              55.705696      2065.0564    
    861000   308.30431     -3.6679853      0              60.851528      2163.2151    
    862000   305.98299     -4.5761854      0              59.457541      2081.6112    
    863000   296.92385     -6.4601423      0              55.677757      2029.4714    
    864000   301.64846     -5.2106393      0              57.915991      2103.6813    
    865000   297.1167      -4.960381       0              57.217876      2037.6682    
    866000   305.62014     -4.3769886      0              59.580802      2191.3413    
    867000   307.20474     -5.3133151      0              58.976089      2027.0164    
    868000   295.73075     -5.2307158      0              56.657501      2119.714     
    869000   300.15674     -5.1203257      0              57.694128      2114.1818    
    870000   304.86081     -6.3829488      0              57.415935      2084.5231    
    871000   290.5062      -5.4899326      0              55.304933      1983.4529    
    872000   285.25304     -5.2444529      0              54.451072      2108.3854    
    873000   297.57826     -3.405308       0              58.869542      2128.543     
    874000   296.83002     -5.912438       0              56.205826      2007.3288    
    875000   310.06498     -4.886469       0              60.001503      2167.6202    
    876000   304.81656     -3.4967885      0              60.292837      2174.0264    
    877000   305.17861     -5.2677751      0              58.597616      2139.8136    
    878000   304.07433     -4.2504474      0              59.383848      2074.237     
    879000   294.30192     -2.3766119      0              59.212591      2145.3239    
    880000   299.75785     -4.6584955      0              58.072483      2057.3817    
    881000   291.46596     -3.4125651      0              57.58315       2180.3139    
    882000   301.97534     -4.6799319      0              58.515104      2022.8823    
    883000   305.67205     -5.8952025      0              58.073451      2066.3122    
    884000   293.66389     -5.2732147      0              56.182467      2095.1325    
    885000   296.17745     -4.3073712      0              57.674328      2064.4135    
    886000   313.21681     -4.1832813      0              61.364281      2128.9966    
    887000   302.66952     -4.7712412      0              58.569067      2065.5369    
    888000   305.91648     -5.2631837      0              58.756624      1957.1232    
    889000   307.38372     -5.7951331      0              58.531726      2023.8677    
    890000   299.09126     -4.8533087      0              57.738169      2032.3575    
    891000   288.14992     -5.39724        0              54.90452       2005.8502    
    892000   307.39459     -4.4827603      0              59.846374      2133.0235    
    893000   300.11834     -5.9702917      0              56.836126      2012.0042    
    894000   303.40279     -4.84103        0              58.652733      2038.3533    
    895000   303.80074     -6.0834194      0              57.493621      2182.7196    
    896000   301.48488     -5.475338       0              57.617058      2043.2594    
    897000   297.61006     -4.4979369      0              57.783568      1998.2829    
    898000   306.32092     -3.3044073      0              60.800037      2134.3456    
    899000   295.77153     -4.2231522      0              57.6736        2099.4182    
    900000   294.2546      -3.9085752      0              57.670725      2051.2401    
    901000   294.62368     -4.9291527      0              56.727386      2011.9287    
    902000   299.09431     -5.1457134      0              57.446404      2173.6564    
    903000   308.25634     -5.9528705      0              58.556603      2048.9137    
    904000   303.76621     -5.1494302      0              58.420386      2168.3008    
    905000   301.34832     -3.5358443      0              59.527974      2103.9183    
    906000   301.64689     -4.6700185      0              58.456282      2035.3945    
    907000   314.20681     -2.8511812      0              62.903561      2195.728     
    908000   307.1823      -4.8940628      0              59.390645      2056.2197    
    909000   298.78209     -6.032616       0              56.494162      2020.2801    
    910000   299.00702     -6.2278652      0              56.345984      2012.8812    
    911000   293.92911     -6.1452689      0              55.365916      2025.6188    
    912000   298.74113     -5.2335847      0              57.284621      2059.0969    
    913000   290.7352      -5.1598699      0              55.682918      2057.9889    
    914000   310.8231      -3.8253593      0              61.221268      2196.4506    
    915000   291.21951     -3.5627978      0              57.381341      2161.2331    
    916000   299.95382     -4.1069818      0              58.665006      2161.6099    
    917000   311.43381     -4.0833427      0              61.091089      2128.5108    
    918000   309.83234     -3.6819129      0              61.157375      2087.9283    
    919000   313.082       -4.6474717      0              60.87188       2108.4103    
    920000   300.02246     -6.4548011      0              56.331552      2021.1622    
    921000   303.13135     -3.5557264      0              59.881231      2176.5809    
    922000   294.904       -4.4683175      0              57.246883      2085.4268    
    923000   305.49804     -5.565611       0              58.366629      2048.9371    
    924000   299.4006      -4.6443393      0              58.011876      2169.2731    
    925000   301.00052     -4.5633224      0              58.427711      2160.468     
    926000   279.88828     -4.3662505      0              54.206578      2178.1906    
    927000   295.41598     -5.2101752      0              56.612169      2060.6892    
    928000   300.73328     -5.2813297      0              57.653778      2162.0892    
    929000   304.39538     -4.7981813      0              58.903301      2114.4736    
    930000   307.19434     -4.9885091      0              59.298718      1984.2983    
    931000   306.20319     -4.3711765      0              59.70863       2104.8802    
    932000   302.68362     -4.3772506      0              58.966008      2026.001     
    933000   307.74802     -3.4192586      0              60.983838      1993.8605    
    934000   295.24184     -3.0618452      0              58.724058      2158.4703    
    935000   295.93588     -6.2903931      0              55.640751      2028.7597    
    936000   300.7023      -5.3865049      0              57.54212       2123.5795    
    937000   301.9163      -4.9696304      0              58.21305       2079.6184    
    938000   300.4761      -3.6505625      0              59.230725      2199.7622    
    939000   295.45362     -6.132556       0              55.697666      1963.1318    
    940000   315.09812     -5.1996011      0              60.741668      2122.2593    
    941000   305.45626     -3.3430477      0              60.580449      2169.6369    
    942000   297.01781     -5.1057235      0              57.051839      1957.8538    
    943000   297.32094     -4.9389837      0              57.282016      2135.9624    
    944000   300.19783     -3.8310489      0              58.992005      2107.835     
    945000   302.51774     -5.382241       0              57.926304      2073.3897    
    946000   304.96877     -6.0604125      0              57.761066      2034.3925    
    947000   297.80259     -4.5259369      0              57.795858      2018.2781    
    948000   294.11173     -4.0173698      0              57.532032      2138.6458    
    949000   306.78372     -4.2304269      0              59.970868      2123.7643    
    950000   299.06292     -6.2390232      0              56.346524      2032.8866    
    951000   298.72633     -4.4392826      0              58.075826      2089.974     
    952000   304.08258     -5.6666977      0              57.969325      2093.9265    
    953000   290.43016     -3.9786145      0              56.800337      2073.9431    
    954000   293.14389     -5.888688       0              55.458172      1961.0365    
    955000   303.218       -5.088616       0              58.366473      2106.8632    
    956000   302.70014     -5.3361608      0              58.010556      2146.3706    
    957000   299.84063     -3.5412152      0              59.207085      2095.9914    
    958000   290.43751     -3.4112552      0              57.369235      2219.1169    
    959000   306.53004     -6.3420537      0              57.806155      2036.4568    
    960000   300.16562     -5.144122       0              57.672191      2006.9805    
    961000   302.95317     -5.1159467      0              58.283723      2222.9874    
    962000   293.33349     -4.7089184      0              56.677618      2152.298     
    963000   297.69669     -5.8573299      0              56.442304      1942.5796    
    964000   301.25508     -5.2594233      0              57.784882      1954.1228    
    965000   293.17775     -6.2617387      0              55.092206      2045.7289    
    966000   298.50194     -3.383032       0              59.085117      2161.563     
    967000   296.88998     -4.9372533      0              57.193559      2017.2669    
    968000   301.98424     -4.9713066      0              58.225593      2104.7417    
    969000   289.91197     -5.1805496      0              55.48996       1943.0436    
    970000   306.32504     -3.2521874      0              60.853119      2161.3776    
    971000   298.19008     -3.6349893      0              58.767897      2079.5426    
    972000   297.99051     -4.3816826      0              57.979439      2095.488     
    973000   306.58727     -4.3357223      0              59.824462      2046.7147    
    974000   295.66347     -4.5559551      0              57.318182      2069.1695    
    975000   304.376       -3.8842153      0              59.813213      2056.1006    
    976000   306.6247      -4.1133678      0              60.05465       2077.3899    
    977000   294.30004     -5.0930502      0              56.49576       2038.896     
    978000   299.29863     -3.3209416      0              59.313934      2145.1692    
    979000   296.68611     -3.1018751      0              58.986273      2140.8524    
    980000   307.33157     -3.4192529      0              60.896693      2116.8782    
    981000   302.0842      -4.2549534      0              58.962864      2033.8737    
    982000   305.48095     -3.6229707      0              60.305691      2145.6611    
    983000   302.65223     -4.3372536      0              58.999436      2060.3905    
    984000   305.26344     -6.1195649      0              57.763579      2040.5758    
    985000   293.88227     -6.138016       0              55.363366      2031.3067    
    986000   293.26107     -5.2861275      0              56.085254      2029.7437    
    987000   301.43447     -4.8697572      0              58.212089      1952.3781    
    988000   293.2232      -4.6196776      0              56.743778      2121.1612    
    989000   307.64945     -3.1947412      0              61.187728      2173.8738    
    990000   303.17304     -4.8770113      0              58.56867       2064.8508    
    991000   301.31319     -5.6535764      0              57.402889      1988.2645    
    992000   288.19157     -4.388172       0              55.922304      2087.3003    
    993000   300.80309     -3.9982118      0              58.951505      2123.7382    
    994000   304.22807     -3.8142511      0              59.852219      2238.4363    
    995000   303.16757     -4.9573389      0              58.487198      1970.0574    
    996000   304.37716     -3.8173669      0              59.880304      2082.8509    
    997000   303.15804     -5.0320873      0              58.410455      2040.9223    
    998000   295.63538     -5.2775512      0              56.590708      2063.1809    
    999000   296.37043     -3.3925868      0              58.629497      2099.9703    
   1000000   311.30312     -4.246275       0              60.900805      2112.0353    
   1001000   289.9489      -5.1075677      0              55.57067       2005.7698    
   1002000   309.50122     -3.8803103      0              60.889683      2151.7959    
   1003000   300.0714      -2.699888       0              60.096707      2169.9665    
   1004000   286.35055     -5.914124       0              54.011079      2026.8938    
   1005000   303.26767     -4.89836        0              58.567124      2041.9511    
   1006000   296.04792     -4.906124       0              57.048467      2121.7241    
   1007000   298.25144     -3.3743638      0              59.041364      2085.6549    
   1008000   310.43709     -4.0508924      0              60.914953      2084.6701    
   1009000   317.39662     -3.0356733      0              63.386607      2099.1939    
   1010000   310.87042     -5.2707501      0              59.785779      2143.1999    
   1011000   301.3372      -5.3214847      0              57.740006      2180.4457    
   1012000   302.14481     -5.3332669      0              57.897234      2014.2081    
   1013000   305.69248     -3.2165164      0              60.756415      2172.678     
   1014000   297.88491     -3.5522592      0              58.786763      2155.601     
   1015000   303.34934     -5.333413       0              58.149164      2053.358     
   1016000   301.45393     -4.5500686      0              58.535851      2130.4739    
   1017000   302.00248     -2.4468164      0              60.753899      2161.6313    
   1018000   300.08443     -4.3735362      0              58.425785      2152.433     
   1019000   288.87841     -5.6989804      0              54.755232      2017.0218    
   1020000   298.7526      -3.2845131      0              59.236093      2143.5605    
   1021000   295.60739     -4.2778001      0              57.5846        2061.5092    
   1022000   294.48011     -4.8742053      0              56.752288      2098.7962    
   1023000   296.41249     -3.8109741      0              58.219912      2092.1929    
   1024000   305.47156     -5.0348481      0              58.89185       2142.8168    
   1025000   297.96934     -4.5005827      0              57.85611       2075.2519    
   1026000   308.25932     -4.39901        0              60.111089      2159.8587    
   1027000   304.7021      -5.1446459      0              58.621026      1987.5681    
   1028000   296.48455     -4.6954375      0              57.35053       2122.8509    
   1029000   294.77794     -4.3942957      0              57.294525      2077.3717    
   1030000   292.25564     -4.1793744      0              56.981599      2126.3836    
   1031000   300.25583     -4.0153843      0              58.819805      2114.6807    
   1032000   296.74663     -5.5427915      0              56.558021      2038.3065    
   1033000   300.19898     -5.5394838      0              57.28381       2119.8283    
   1034000   302.64185     -6.0889824      0              57.245536      2131.949     
   1035000   297.11191     -5.0005013      0              57.176755      2061.7071    
   1036000   302.46988     -3.3478771      0              59.950651      2091.2307    
   1037000   295.10504     -4.2950777      0              57.462196      2164.9199    
   1038000   317.10852     -3.8906592      0              62.471331      2294.4314    
   1039000   295.51206     -4.1820857      0              57.660366      2093.1637    
   1040000   299.83079     -4.1716566      0              58.574586      2000.0725    
   1041000   316.29403     -4.6490132      0              61.542527      2117.9047    
   1042000   306.84768     -4.7075298      0              59.507152      2101.8389    
   1043000   300.01028     -5.2468001      0              57.537003      2109.2713    
   1044000   288.11626     -3.1822202      0              57.112495      2112.992     
   1045000   294.4766      -4.3990799      0              57.226679      2100.772     
   1046000   298.62868     -4.0292008      0              58.465473      2080.9986    
   1047000   307.97312     -5.6990875      0              58.751118      2032.6314    
   1048000   289.12467     -6.6094248      0              53.896325      2028.5936    
   1049000   299.99469     -4.1540535      0              58.626488      2149.7339    
   1050000   295.62224     -3.2564209      0              58.609088      2168.286     
   1051000   289.29548     -4.170584       0              56.370909      2143.8239    
   1052000   300.70914     -6.4238251      0              56.50623       1966.3238    
   1053000   302.77607     -4.2467939      0              59.115812      2065.2269    
   1054000   304.61173     -5.2793737      0              58.467385      2178.5092    
   1055000   300.44459     -4.4315419      0              58.44315       2160.2578    
   1056000   296.24888     -3.8368924      0              58.159755      2018.15      
   1057000   297.56083     -4.5034004      0              57.767802      2127.1861    
   1058000   308.59053     -5.89478        0              58.684632      2035.1123    
   1059000   291.44063     -5.4927841      0              55.49763       2011.8737    
   1060000   303.65896     -6.6282768      0              56.919094      2040.4376    
   1061000   298.08042     -4.1446201      0              58.235319      2098.4785    
   1062000   302.41823     -4.8786858      0              58.409035      2063.3086    
   1063000   309.1264      -3.8559463      0              60.835608      2028.3679    
   1064000   304.51741     -4.2882902      0              59.438731      2098.4147    
   1065000   298.17937     -5.5059868      0              56.894658      1959.313     
   1066000   298.98068     -3.4083026      0              59.160035      2051.7523    
   1067000   305.10087     -4.8575043      0              58.991618      2007.8085    
   1068000   295.7371      -6.1555193      0              55.734028      2088.3095    
   1069000   294.12758     -4.7551472      0              56.797572      2119.1395    
   1070000   293.83187     -4.9500803      0              56.540754      2098.3964    
   1071000   304.63452     -4.6859711      0              59.065557      2105.676     
   1072000   293.05955     -5.9144542      0              55.414755      1964.3969    
   1073000   307.65549     -3.9452932      0              60.43844       2211.2839    
   1074000   290.54301     -5.8224646      0              54.980102      1943.2135    
   1075000   307.6602      -6.2120104      0              58.172709      1994.9947    
   1076000   309.21162     -6.3498708      0              58.359518      2026.5002    
   1077000   299.16233     -5.4660502      0              57.1403        2119.3375    
   1078000   312.24704     -4.9626249      0              60.381993      2087.1275    
   1079000   289.92697     -5.3639813      0              55.309667      2140.6107    
   1080000   310.99576     -4.3172094      0              60.76555       2102.7648    
   1081000   302.88365     -5.8786871      0              57.506433      1952.662     
   1082000   307.85565     -3.2148128      0              61.210809      2106.986     
   1083000   292.82314     -4.1656942      0              57.11404       2132.4969    
   1084000   304.65892     -6.3547051      0              57.401929      2138.381     
   1085000   297.334       -3.2030453      0              59.020687      2116.4305    
   1086000   300.34282     -4.2368778      0              58.616518      2076.7042    
   1087000   308.87418     -3.5717522      0              61.067018      2079.192     
   1088000   303.24858     -3.5683706      0              59.89312       2080.1006    
   1089000   311.23078     -3.678908       0              61.453035      2189.3234    
   1090000   293.95367     -3.566539       0              57.949786      2182.3306    
   1091000   306.0007      -5.3013076      0              58.736124      1975.0785    
   1092000   311.68174     -4.6171123      0              60.609204      2204.9216    
   1093000   297.4002      -4.2684894      0              57.969097      2029.1932    
   1094000   292.85586     -3.7739284      0              57.512654      2025.1275    
   1095000   294.9672      -4.5570991      0              57.171329      2073.0252    
   1096000   301.62753     -4.5186743      0              58.603574      2134.5992    
   1097000   303.68967     -4.6616819      0              58.892116      2099.1086    
   1098000   305.14767     -4.7789163      0              59.08          1995.8062    
   1099000   296.70258     -4.4168444      0              57.674749      2053.8093    
   1100000   293.68126     -4.7168269      0              56.742489      2018.099     
   1101000   310.27912     -3.1600159      0              61.772769      2149.4774    
   1102000   304.46096     -4.4364923      0              59.278715      2064.8715    
   1103000   299.30084     -3.9635287      0              58.671809      2118.5973    
   1104000   300.18482     -2.411826       0              60.408504      2205.4171    
   1105000   302.69582     -5.1998292      0              58.145984      2119.4671    
   1106000   298.57274     -4.9895549      0              57.493413      2051.2578    
   1107000   288.12172     -6.5025937      0              53.793266      2043.0696    
   1108000   305.41998     -2.897054       0              61.01885       2187.0888    
   1109000   294.11903     -4.1128755      0              57.438054      2129.4752    
   1110000   294.61528     -5.9896824      0              55.665097      1987.0442    
   1111000   299.38166     -5.156168       0              57.496084      2066.9811    
   1112000   296.71029     -5.3005111      0              56.792696      2047.4693    
   1113000   299.33443     -3.8271464      0              58.815221      2161.5223    
   1114000   288.48685     -4.5317541      0              55.840517      2176.2054    
   1115000   297.80162     -4.3446116      0              57.976981      2128.7592    
   1116000   300.92262     -5.2279862      0              57.746746      2009.1541    
   1117000   296.76441     -4.084324       0              58.020209      2056.4361    
   1118000   296.99121     -4.8791582      0              57.272839      2143.2092    
   1119000   306.57918     -5.0114877      0              59.147003      2161.9661    
   1120000   305.47588     -2.6817425      0              61.24586       2063.4714    
   1121000   303.17711     -4.9791062      0              58.467426      2059.2775    
   1122000   311.26629     -3.9236822      0              61.215691      2141.0706    
   1123000   298.3468      -5.9024733      0              56.53321       2071.6797    
   1124000   302.61185     -4.7872185      0              58.541021      2027.9459    
   1125000   292.5394      -3.6583231      0              57.562033      2135.979     
   1126000   303.93813     -4.3124001      0              59.293392      2048.2212    
   1127000   307.01812     -5.0590677      0              59.191281      2043.9474    
   1128000   305.99063     -5.0467001      0              58.988624      2049.593     
   1129000   300.37554     -3.3663991      0              59.493844      2071.5108    
   1130000   296.55334     -3.4154839      0              58.644879      2148.5808    
   1131000   280.22448     -4.3043683      0              54.338817      2002.2471    
   1132000   296.8331      -4.5234051      0              57.595503      2180.0969    
   1133000   287.58449     -5.0723354      0              55.111097      2042.2031    
   1134000   300.72459     -5.0771208      0              57.856169      2068.8521    
   1135000   296.14257     -4.2439471      0              57.730453      2065.4852    
   1136000   306.7616      -5.2938288      0              58.902838      2172.8982    
   1137000   297.01438     -6.2436801      0              55.913165      1946.4556    
   1138000   299.13181     -3.7270819      0              58.872882      2196.5239    
   1139000   292.46049     -3.5212522      0              57.682591      2092.2812    
   1140000   304.75261     -4.6971935      0              59.079048      2120.4734    
   1141000   304.94531     -3.9255526      0              59.891015      2085.5167    
   1142000   293.28009     -4.3846104      0              56.990752      2112.6144    
   1143000   301.7         -3.9751935      0              59.162223      2177.7282    
   1144000   299.60945     -3.4706493      0              59.229272      2088.8006    
   1145000   309.27647     -3.2590069      0              61.463952      2148.484     
   1146000   308.57596     -5.9057914      0              58.670571      2159.0272    
   1147000   293.72502     -4.6619135      0              56.806559      2072.068     
   1148000   305.73822     -4.5936749      0              59.388828      2217.1413    
   1149000   297.31433     -4.3220661      0              57.89755       2131.7722    
   1150000   286.23057     -5.6294892      0              54.270605      2027.486     
   1151000   303.06424     -4.763161       0              58.659751      2214.4768    
   1152000   301.79289     -3.7349655      0              59.421889      2061.5432    
   1153000   303.80967     -3.1813679      0              60.397542      2142.9249    
   1154000   301.15386     -4.5751293      0              58.447994      2161.9006    
   1155000   308.80729     -4.4228083      0              60.201965      2180.9288    
   1156000   294.34346     -6.3501717      0              55.247725      2088.6372    
   1157000   300.2721      -5.4419874      0              57.396608      2146.4518    
   1158000   298.58708     -5.0053266      0              57.480642      2016.4452    
   1159000   292.19001     -3.5734598      0              57.573779      2086.0829    
   1160000   310.386       -3.2938288      0              61.661325      2162.8364    
   1161000   314.60674     -4.6637941      0              61.174642      2097.5525    
   1162000   295.93425     -6.5080102      0              55.422793      2093.083     
   1163000   297.92553     -4.0532726      0              58.294252      2276.7605    
   1164000   305.3783      -4.7908032      0              59.116378      2066.6885    
   1165000   303.74655     -5.0757851      0              58.489915      2025.3938    
   1166000   310.50223     -5.6328002      0              59.346677      2070.5326    
   1167000   289.82782     -4.6650069      0              55.987892      2039.6958    
   1168000   307.32993     -3.3997809      0              60.915821      2205.8977    
   1169000   299.5706      -5.6761523      0              57.015639      1993.3896    
   1170000   302.17021     -3.7043778      0              59.531439      2166.9072    
   1171000   303.9277      -3.3970222      0              60.206589      2065.6137    
   1172000   300.31673     -5.0671173      0              57.780818      2020.8062    
   1173000   301.56434     -4.2124832      0              58.896541      2115.602     
   1174000   289.81699     -5.3398015      0              55.310831      1956.089     
   1175000   290.97466     -4.7507831      0              56.142117      1996.4469    
   1176000   302.65601     -5.8049843      0              57.532498      2113.9151    
   1177000   309.31995     -5.0898691      0              59.642189      2073.0977    
   1178000   298.45704     -5.1179783      0              57.340775      2061.2847    
   1179000   304.2187      -4.5286696      0              59.135839      2136.993     
   1180000   302.68088     -5.4685162      0              57.87417       2065.6129    
   1181000   303.86629     -5.2243143      0              58.366445      2091.7854    
   1182000   299.96713     -5.7063601      0              57.068414      2178.7325    
   1183000   314.05211     -4.3483594      0              61.374009      2138.4135    
   1184000   300.32816     -4.2005633      0              58.649763      2062.2691    
   1185000   304.61879     -4.7205759      0              59.02766       2024.5279    
   1186000   307.24792     -5.4686822      0              58.829758      1991.1701    
   1187000   298.27705     -4.7709386      0              57.650148      2094.7601    
   1188000   294.89004     -3.8171297      0              57.895149      2099.2172    
   1189000   295.92952     -4.3484034      0              57.581411      2185.0377    
   1190000   303.34785     -4.8931955      0              58.589069      2171.2344    
   1191000   307.8547      -3.7068319      0              60.718591      2151.0744    
   1192000   300.47486     -4.2517748      0              58.629252      2096.8126    
   1193000   291.85615     -3.9562356      0              57.121136      2065.091     
   1194000   298.28217     -3.4019908      0              59.020167      2156.5943    
   1195000   295.13921     -4.7720282      0              56.992396      2081.2782    
   1196000   292.66362     -3.2244247      0              58.021927      2153.3765    
   1197000   301.82934     -5.9087263      0              57.255757      2051.941     
   1198000   307.60065     -4.1542699      0              60.217988      2108.423     
   1199000   297.51747     -3.7546738      0              58.507453      2087.1776    
   1200000   302.21962     -5.0300899      0              58.216067      2063.2112    
   1201000   300.89809     -2.6505999      0              60.318998      2146.5386    
   1202000   304.84911     -4.6698453      0              59.126591      2112.8386    
   1203000   292.80226     -4.7102092      0              56.565156      2072.2046    
   1204000   303.35007     -6.4392414      0              57.043487      2001.2391    
   1205000   295.70194     -4.2478721      0              57.634315      2274.0599    
   1206000   314.9859      -5.8602536      0              60.057531      2202.9115    
   1207000   297.71472     -5.3887749      0              56.914632      2015.4797    
   1208000   299.4928      -4.0266942      0              58.648816      2135.3101    
   1209000   287.77596     -5.0077273      0              55.215775      2048.0414    
   1210000   302.01838     -5.6712428      0              57.532801      2046.2351    
   1211000   303.329       -3.7846665      0              59.693652      2156.2116    
   1212000   294.53768     -4.8315825      0              56.806958      2130.2431    
   1213000   298.77497     -5.2563636      0              57.268924      2030.0337    
   1214000   305.60812     -3.9863821      0              59.968894      2143.26      
   1215000   304.89419     -5.3374756      0              58.468395      2059.39      
   1216000   306.59154     -3.9415233      0              60.219554      2059.5325    
   1217000   294.57084     -5.8757072      0              55.769774      1996.2224    
   1218000   293.38902     -4.2017426      0              57.196415      2060.9508    
   1219000   290.91498     -5.7071067      0              55.173303      2063.371     
   1220000   298.71407     -4.8634924      0              57.64905       2140.8125    
   1221000   307.55281     -4.3521152      0              60.010131      2218.2528    
   1222000   309.2082      -5.312386       0              59.396287      2107.0818    
   1223000   305.85985     -4.5947263      0              59.413229      2110.2937    
   1224000   285.75307     -3.1714808      0              56.628685      2138.6113    
   1225000   301.89812     -4.702546       0              58.476329      1982.0844    
   1226000   311.7942      -3.7411248      0              61.508726      2184.2969    
   1227000   295.12546     -5.5707789      0              56.190769      1956.1902    
   1228000   301.75398     -4.8974358      0              58.251276      2168.7783    
   1229000   302.10441     -4.6214247      0              58.600621      2069.3146    
   1230000   312.49667     -4.1859589      0              61.210898      2045.2138    
   1231000   298.5721      -3.8918448      0              58.590987      2093.843     
   1232000   302.68846     -4.9503692      0              58.393903      2046.4989    
   1233000   290.00266     -3.9235379      0              56.765949      2131.2579    
   1234000   304.58468     -5.9773358      0              57.763762      1959.2785    
   1235000   293.42898     -5.4138419      0              55.99268       2003.7802    
   1236000   306.49246     -4.1747356      0              59.965608      2092.0323    
   1237000   295.68742     -5.0583939      0              56.820755      2146.8188    
   1238000   300.92738     -4.2987736      0              58.676954      2005.3207    
   1239000   301.12686     -5.0545894      0              57.962884      2139.2472    
   1240000   303.8275      -4.0586987      0              59.523943      2222.6148    
   1241000   296.89898     -3.644961       0              58.487735      2163.0915    
   1242000   303.26494     -4.8989409      0              58.565973      2063.1166    
   1243000   294.81909     -3.7364635      0              57.960968      2126.3631    
   1244000   311.1836      -4.7589634      0              60.363106      2143.0547    
   1245000   307.3589      -4.5107981      0              59.810868      2075.3044    
   1246000   291.59791     -3.2230599      0              57.800269      2258.287     
   1247000   295.19445     -5.0226155      0              56.753368      2040.7592    
   1248000   294.41053     -4.5533962      0              57.058536      2100.993     
   1249000   301.9786      -4.3502981      0              58.84542       2202.3181    
   1250000   297.84697     -4.9970938      0              57.33399       2055.3804    
   1251000   308.56141     -5.5757705      0              58.997546      2164.7358    
   1252000   298.71019     -3.9330474      0              58.578683      2161.599     
   1253000   310.7651      -2.3885376      0              62.64595       2279.4291    
   1254000   286.2038      -5.3252862      0              54.569204      2007.9629    
   1255000   304.38318     -3.5409699      0              60.15796       2174.5575    
   1256000   295.49726     -5.3095007      0              56.529853      2086.4465    
   1257000   291.50202     -3.4267086      0              57.576553      2119.7891    
   1258000   304.97318     -4.636734       0              59.185667      2086.3976    
   1259000   304.17813     -4.5825395      0              59.07348       2078.518     
   1260000   294.15155     -5.3290791      0              56.228655      2096.0649    
   1261000   296.77217     -3.1042839      0              59.001874      2157.7787    
   1262000   304.83707     -4.8066844      0              58.987232      2045.0081    
   1263000   310.96169     -5.3134251      0              59.762204      2143.4584    
   1264000   299.64747     -4.5952588      0              58.112619      2131.9811    
   1265000   299.47501     -5.0301075      0              57.641679      1993.725     
   1266000   287.01521     -6.653951       0              53.410345      2076.9491    
   1267000   301.24517     -7.149132       0              55.893099      1979.8575    
   1268000   297.36255     -4.7439324      0              57.485776      2002.8899    
   1269000   301.80216     -4.9348586      0              58.223936      1983.4849    
   1270000   304.26981     -4.8121105      0              58.863095      2120.4482    
   1271000   298.45321     -4.685335       0              57.772618      2068.1586    
   1272000   302.00802     -4.6738327      0              58.528042      2113.327     
   1273000   311.11987     -6.8182383      0              58.290494      2006.487     
   1274000   293.90758     -5.1748193      0              56.331859      2187.2643    
   1275000   296.57402     -4.5159661      0              57.548725      2159.2112    
   1276000   295.14078     -6.0036946      0              55.761059      2030.5529    
   1277000   298.38271     -5.3400382      0              57.10316       2071.4633    
   1278000   301.81591     -4.3696527      0              58.792019      2054.228     
   1279000   301.89362     -4.5388995      0              58.639035      2126.3398    
   1280000   293.78876     -5.2334405      0              56.248371      2144.5366    
   1281000   288.53373     -4.3781747      0              56.003905      2088.3154    
   1282000   294.19053     -5.7164128      0              55.84948       1993.1557    
   1283000   297.67869     -4.4075604      0              57.888305      2177.5576    
   1284000   303.53451     -3.0834807      0              60.437846      2089.554     
   1285000   305.95146     -5.0621623      0              58.964965      2152.6972    
   1286000   310.67303     -5.4382816      0              59.576939      2093.996     
   1287000   298.29287     -6.846855       0              55.577542      1941.3087    
   1288000   295.02074     -4.7953676      0              56.944265      2067.5385    
   1289000   301.10952     -3.654395       0              59.35945       2219.1909    
   1290000   294.56548     -4.0923618      0              57.551996      2094.9959    
   1291000   301.33186     -4.2950535      0              58.765319      2158.1092    
   1292000   304.21861     -5.3162425      0              58.348248      2120.2606    
   1293000   293.17484     -4.4153085      0              56.938029      2026.946     
   1294000   298.1704      -4.8528277      0              57.54594       2060.8214    
   1295000   299.95393     -4.591756       0              58.180256      2232.0978    
   1296000   297.84971     -3.892946       0              58.43871       2070.6451    
   1297000   306.69095     -4.0030232      0              60.178859      2182.8096    
   1298000   289.72594     -6.4192975      0              54.21228       2050.678     
   1299000   288.10363     -4.5573586      0              55.734714      2086.4242    
   1300000   292.99275     -3.6064767      0              57.708753      2056.8922    
   1301000   296.33517     -5.0408571      0              56.973849      2054.332     
   1302000   284.69022     -3.3301404      0              56.247601      2158.0255    
   1303000   304.27671     -4.5586043      0              59.118044      2092.8605    
   1304000   299.72084     -5.0397059      0              57.683527      1995.5202    
   1305000   301.88184     -6.1549721      0              57.020498      2046.2325    
   1306000   300.25175     -5.027075       0              57.807261      2053.1895    
   1307000   306.17792     -3.0967403      0              60.97778       2065.4768    
   1308000   296.04808     -4.9611659      0              56.993459      2022.0863    
   1309000   294.99732     -3.8942184      0              57.840512      2118.4418    
   1310000   309.52789     -3.644862       0              61.130713      2113.4388    
   1311000   307.36563     -4.0139515      0              60.309122      2166.7857    
   1312000   299.79393     -4.5323921      0              58.206136      2027.9092    
   1313000   293.59306     -5.8210994      0              55.619759      2065.8953    
   1314000   296.30368     -5.3267964      0              56.68132       2086.0222    
   1315000   302.30058     -4.3438436      0              58.919257      2168.0903    
   1316000   293.64229     -5.8575747      0              55.593585      2004.6658    
   1317000   288.97499     -4.6945294      0              55.779894      2155.8143    
   1318000   295.74466     -4.8498006      0              57.041329      2195.8575    
   1319000   293.28843     -4.7561501      0              56.620958      2125.9514    
   1320000   287.61243     -5.140932       0              55.048347      2026.6281    
   1321000   294.86789     -4.925528       0              56.782117      2127.8017    
   1322000   310.11238     -4.0425517      0              60.855341      2092.2919    
   1323000   292.04792     -5.2996372      0              55.817866      2059.5295    
   1324000   306.612       -4.8210249      0              59.344335      2154.1221    
   1325000   298.4618      -4.1106154      0              58.349135      2054.2243    
   1326000   294.35859     -4.4490701      0              57.151992      2158.6917    
   1327000   295.56479     -5.2414767      0              56.612009      1968.2673    
   1328000   304.99286     -4.5000042      0              59.326515      2067.7995    
   1329000   296.95297     -3.4038829      0              58.740111      2125.2378    
   1330000   298.46889     -2.1693085      0              60.291926      2231.7023    
   1331000   292.54466     -5.0793499      0              56.142108      2019.8568    
   1332000   291.13802     -2.3065111      0              58.620576      2090.3203    
   1333000   296.00726     -3.6714155      0              58.274668      2117.967     
   1334000   291.80114     -4.9099929      0              56.155867      2091.5074    
   1335000   295.2488      -4.8387436      0              56.948614      2048.0108    
   1336000   305.28        -3.669353       0              60.217256      2153.8543    
   1337000   297.07694     -4.5602589      0              57.609678      2047.393     
   1338000   313.97666     -2.6085947      0              63.097984      2143.3109    
   1339000   309.49563     -3.6317547      0              61.137069      2040.6725    
   1340000   306.31874     -3.8536705      0              60.250318      2079.9246    
   1341000   297.02797     -4.743237       0              57.416453      2108.5526    
   1342000   300.87279     -6.4187315      0              56.545571      2015.5288    
   1343000   303.0182      -5.7373595      0              57.675917      1996.2544    
   1344000   293.03253     -3.8019981      0              57.521557      2182.1566    
   1345000   300.74346     -4.0093235      0              58.927914      2129.4729    
   1346000   315.68931     -2.7985563      0              63.266433      2191.9134    
   1347000   292.53807     -5.5792627      0              55.640816      1977.4413    
   1348000   296.3546      -3.8683029      0              58.150469      2100.6775    
   1349000   308.62639     -5.2871294      0              59.299787      2152.8436    
   1350000   296.76775     -5.1705997      0              56.934632      2100.3583    
   1351000   300.01015     -3.299654       0              59.484122      2143.8845    
   1352000   308.19951     -4.3974461      0              60.100136      2106.4505    
   1353000   301.7712      -4.7300508      0              58.422264      2081.2904    
   1354000   299.72088     -4.6687225      0              58.054518      2094.5192    
   1355000   308.40158     -4.2412827      0              60.298587      2187.5037    
   1356000   302.40272     -5.7718924      0              57.512582      2070.9902    
   1357000   297.85196     -3.1481974      0              59.18393       2091.0155    
   1358000   301.59837     -4.3810991      0              58.735047      2071.7663    
   1359000   297.90038     -5.0737298      0              57.26853       2143.4041    
   1360000   315.61485     -4.6914689      0              61.357937      2079.2011    
   1361000   303.70152     -5.0400655      0              58.516213      2026.3626    
   1362000   291.62793     -4.5374995      0              56.492112      1975.8837    
   1363000   299.91929     -4.416551       0              58.348211      2096.8849    
   1364000   305.48428     -5.1228155      0              58.806544      2087.3576    
   1365000   295.27085     -5.9695941      0              55.822379      1987.8115    
   1366000   304.20949     -4.9535156      0              58.709066      2125.832     
   1367000   297.47196     -3.5692547      0              58.683349      2134.2255    
   1368000   302.77611     -5.6772696      0              57.685345      2185.9144    
   1369000   294.14871     -5.3886072      0              56.168534      2045.4909    
   1370000   287.63264     -5.3800682      0              54.81344       2106.1129    
   1371000   314.41166     -3.2759083      0              62.521703      2179.9178    
   1372000   297.73454     -5.2669282      0              57.040626      2016.6699    
   1373000   301.91318     -4.6857622      0              58.496266      2103.3197    
   1374000   297.57769     -4.632586       0              57.642145      2130.9449    
   1375000   293.14618     -3.0863049      0              58.261034      2094.261     
   1376000   301.21473     -4.8999506      0              58.135911      2031.6223    
   1377000   304.49013     -4.3712592      0              59.350053      2119.9414    
   1378000   295.63783     -3.9450463      0              57.923725      2169.6329    
   1379000   304.84511     -5.1189219      0              58.676677      2138.6636    
   1380000   296.78784     -3.7842246      0              58.325212      2069.5603    
   1381000   303.35731     -6.5056435      0              56.978601      2082.3904    
   1382000   299.46771     -4.2247219      0              58.445537      2168.4139    
   1383000   291.17753     -5.9440849      0              54.991271      1929.5056    
   1384000   306.13364     -5.0233814      0              59.041872      2048.878     
   1385000   307.49552     -5.4076978      0              58.942558      2012.0401    
   1386000   312.09989     -4.7131483      0              60.600674      2052.5629    
   1387000   310.28413     -5.2830087      0              59.650826      2034.0738    
   1388000   289.80513     -4.4140174      0              56.234133      2130.302     
   1389000   300.27609     -5.8033821      0              57.036048      1960.1332    
   1390000   310.35547     -4.7125376      0              60.236227      2132.2016    
   1391000   299.70876     -6.0626161      0              56.658088      2021.454     
   1392000   294.07257     -4.2424546      0              57.298751      2200.2826    
   1393000   298.38845     -5.9637404      0              56.480659      2010.5668    
   1394000   309.4575      -5.4765552      0              59.284288      2177.3283    
   1395000   304.65495     -4.7234545      0              59.032349      2032.8092    
   1396000   301.96196     -4.2768989      0              58.915336      2009.0756    
   1397000   297.77782     -3.1157228      0              59.200889      2066.4354    
   1398000   303.18728     -6.3678813      0              57.080781      1980.3047    
   1399000   296.3118      -4.9930024      0              57.016813      2048.6118    
   1400000   309.36827     -5.0623342      0              59.679836      2141.0798    
   1401000   303.62809     -4.4621584      0              59.078753      2091.4401    
   1402000   305.86268     -5.0262293      0              58.982319      2035.1867    
   1403000   295.75664     -3.3114934      0              58.582142      2243.3221    
   1404000   300.95002     -4.9070249      0              58.073441      2112.6275    
   1405000   299.9326      -5.4646203      0              57.302928      2083.746     
   1406000   304.83043     -6.0727985      0              57.719729      2021.3547    
   1407000   301.51829     -3.661413       0              59.437975      2129.967     
   1408000   299.9257      -4.8633911      0              57.902712      2022.7126    
   1409000   302.33408     -3.7273275      0              59.542783      2256.3636    
   1410000   299.85462     -5.1592032      0              57.592026      2108.4977    
   1411000   306.89354     -4.5195425      0              59.704736      2013.6465    
   1412000   301.35148     -4.1475048      0              58.916976      2081.5136    
   1413000   292.70223     -5.2408669      0              56.013565      2102.2941    
   1414000   290.98606     -5.2021054      0              55.69318       2053.4498    
   1415000   313.6866      -3.8152053      0              61.830671      2239.6244    
   1416000   308.41516     -4.7891688      0              59.753543      2144.4085    
   1417000   301.94933     -3.5448037      0              59.644789      2181.9241    
   1418000   312.09836     -4.4719943      0              60.841509      2094.886     
   1419000   309.52866     -5.1616459      0              59.614091      2038.3222    
   1420000   307.28473     -4.9050185      0              59.401125      2067.3261    
   1421000   296.11066     -6.7113898      0              55.256331      2081.6505    
   1422000   293.96507     -3.7212535      0              57.797457      2075.7496    
   1423000   313.40148     -4.7921396      0              60.794069      2053.2505    
   1424000   305.09089     -4.1884665      0              59.658568      2149.7804    
   1425000   289.98196     -4.0048962      0              56.680259      2158.0872    
   1426000   291.36644     -4.8568237      0              56.118065      2038.6865    
   1427000   288.2581      -5.592631       0              54.731768      2062.909     
   1428000   297.43964     -5.5097557      0              56.736084      2073.2207    
   1429000   299.46397     -5.6031448      0              57.066331      2067.2141    
   1430000   305.93799     -4.7141613      0              59.310148      2060.0812    
   1431000   298.12677     -3.4758667      0              58.913771      2135.1598    
   1432000   293.54201     -4.8885851      0              56.54159       2041.2867    
   1433000   301.17381     -4.5563621      0              58.470935      2073.7883    
   1434000   299.80677     -5.2876354      0              57.453578      2100.0991    
   1435000   299.84512     -3.6701677      0              59.079073      2101.2457    
   1436000   300.09824     -5.2469398      0              57.555272      2122.8289    
   1437000   298.00939     -4.8227471      0              57.542326      2091.1134    
   1438000   300.95428     -4.0718133      0              58.909543      2203.9115    
   1439000   287.29687     -4.3331347      0              55.790107      2036.6585    
   1440000   297.38104     -3.6889539      0              58.544623      2178.2242    
   1441000   302.89866     -4.9279698      0              58.460292      2080.5316    
   1442000   311.25475     -5.6584366      0              59.478522      2093.9241    
   1443000   296.14848     -4.0255967      0              57.95004       2047.9525    
   1444000   297.64395     -4.2806911      0              58.007905      2167.1541    
   1445000   300.59197     -2.8575558      0              60.047979      2145.1112    
   1446000   301.12999     -6.219338       0              56.798791      2105.8571    
   1447000   298.76576     -3.8939605      0              58.629401      2118.1303    
   1448000   304.21879     -5.8103594      0              57.854167      2008.742     
   1449000   300.03725     -4.0415489      0              58.747898      2132.1352    
   1450000   313.08058     -5.0202046      0              60.49885       2239.6529    
   1451000   299.00361     -5.2142982      0              57.358837      2006.6954    
   1452000   309.39466     -3.859146       0              60.888547      2266.8409    
   1453000   302.51567     -5.7778176      0              57.530295      2118.2525    
   1454000   296.99242     -4.3518927      0              57.800358      1983.6195    
   1455000   298.85255     -4.939088       0              57.602436      2151.9268    
   1456000   303.60962     -7.561419       0              55.975627      1935.5291    
   1457000   300.23807     -3.6515589      0              59.179916      2077.6825    
   1458000   300.92753     -4.0796692      0              58.89609       2002.5074    
   1459000   290.51839     -3.4480908      0              57.349324      2055.202     
   1460000   308.16878     -5.731154       0              58.759997      2102.4515    
   1461000   301.15109     -5.7783829      0              57.24416       2058.6109    
   1462000   295.69533     -4.8267316      0              57.054074      2037.062     
   1463000   299.40953     -5.3839813      0              57.274102      2075.5304    
   1464000   303.77938     -5.8102594      0              57.762312      2063.7914    
   1465000   303.42712     -6.1905253      0              57.308328      2062.9521    
   1466000   294.44045     -5.3392654      0              56.278929      2130.4726    
   1467000   310.34419     -3.6896068      0              61.256797      2097.78      
   1468000   292.07723     -4.7093205      0              56.414316      2095.912     
   1469000   288.39076     -6.1008163      0              54.251346      1991.0208    
   1470000   292.86506     -4.495701       0              56.792808      2138.0795    
   1471000   301.06579     -5.2025589      0              57.802133      2140.3687    
   1472000   303.30137     -3.6688906      0              59.803647      2187.767     
   1473000   286.08962     -4.6977286      0              55.172869      2081.5383    
   1474000   311.07727     -3.6093463      0              61.490471      2100.8378    
   1475000   298.88513     -6.0773851      0              56.470956      2002.5049    
   1476000   302.93436     -5.5566844      0              57.839048      2048.8178    
   1477000   297.28524     -4.8418705      0              57.371658      2039.9638    
   1478000   289.90682     -5.6334551      0              55.035976      2104.181     
   1479000   307.30493     -4.4760193      0              59.834351      2158.2088    
   1480000   294.89572     -5.5304484      0              56.183019      2058.8034    
   1481000   295.51088     -4.0072109      0              57.834993      2168.4474    
   1482000   303.24666     -5.0047989      0              58.456289      2152.5042    
   1483000   295.51861     -3.4796253      0              58.364197      2028.1771    
   1484000   299.52434     -3.3976588      0              59.284452      2152.7739    
   1485000   295.86798     -4.5118406      0              57.405096      2078.8732    
   1486000   298.62379     -6.0137635      0              56.479887      1940.4822    
   1487000   304.25668     -4.5208699      0              59.151587      2041.3816    
   1488000   293.2942      -4.4935879      0              56.884727      2007.2298    
   1489000   302.62615     -4.72719        0              58.604042      2128.3081    
   1490000   287.56913     -4.4045986      0              55.775618      2168.3661    
   1491000   303.53134     -5.5798736      0              57.940789      2036.1545    
   1492000   295.99517     -4.7388147      0              57.204739      2093.9786    
   1493000   295.69071     -5.9783775      0              55.90146       2039.8179    
   1494000   294.9614      -3.8398605      0              57.887354      2132.5766    
   1495000   299.70338     -5.2874171      0              57.432162      2074.3091    
   1496000   299.28557     -4.4062545      0              58.225889      2162.2916    
   1497000   295.34633     -4.4994365      0              57.308332      2173.1107    
   1498000   295.2156      -4.5139949      0              57.266416      2062.0206    
   1499000   307.02526     -4.9101179      0              59.341727      2076.0971    
   1500000   295.13427     -4.2781424      0              57.485248      2110.3606    
   1501000   293.66989     -3.5633421      0              57.893594      2038.4611    
   1502000   296.42201     -3.8489843      0              58.183895      2088.9764    
   1503000   313.63586     -6.6513115      0              58.983947      1996.3424    
   1504000   302.65583     -5.0896617      0              58.247781      1994.1298    
   1505000   294.96845     -4.0669863      0              57.661703      2064.3923    
   1506000   310.70749     -4.1446163      0              60.877816      2034.0025    
   1507000   297.79485     -3.4236448      0              58.896532      2167.2883    
   1508000   296.81418     -3.5640459      0              58.550903      2176.839     
   1509000   302.69985     -5.573109       0              57.773547      2051.0245    
   1510000   301.60306     -5.2804095      0              57.836719      2072.9413    
   1511000   285.65891     -3.3870332      0              56.393427      2145.2923    
   1512000   301.46638     -3.9311385      0              59.157387      2094.5638    
   1513000   303.06831     -5.8260269      0              57.597738      2079.292     
   1514000   299.1599      -6.6175275      0              55.988315      2003.2457    
   1515000   299.42382     -4.4855513      0              58.175522      2157.6828    
   1516000   303.63024     -4.9820994      0              58.559261      2045.3915    
   1517000   311.51495     -4.0051294      0              61.186281      2235.4623    
   1518000   299.76694     -6.4001003      0              56.332779      2083.8761    
   1519000   299.68588     -4.9499694      0              57.765947      2067.6312    
   1520000   298.91117     -4.8108268      0              57.742963      2110.567     
   1521000   297.51168     -5.0172386      0              57.243677      2078.023     
   1522000   301.27242     -3.7635849      0              59.284349      2087.6015    
   1523000   302.47289     -4.103833       0              59.195326      2132.5066    
   1524000   302.8664      -5.9425648      0              57.438945      2111.3839    
   1525000   299.78916     -4.3502987      0              58.38723       2110.5957    
   1526000   312.51504     -7.10196        0              58.298741      2048.1       
   1527000   293.18714     -4.5915404      0              56.764371      2039.1894    
   1528000   311.19321     -4.1756192      0              60.948461      2130.8262    
   1529000   302.15729     -3.627882       0              59.605232      2197.891     
   1530000   299.22874     -4.5486709      0              58.071579      2112.3753    
   1531000   297.77091     -3.1188719      0              59.196294      2160.5097    
   1532000   305.08567     -4.7844686      0              59.061472      2115.8995    
   1533000   299.48432     -4.6286545      0              58.045081      2088.3084    
   1534000   299.53741     -3.7394622      0              58.945384      2146.6735    
   1535000   300.45483     -5.1411887      0              57.735647      2073.1197    
   1536000   307.03685     -3.6571358      0              60.597133      2128.8304    
   1537000   301.05087     -3.6265456      0              59.375024      2075.965     
   1538000   300.84051     -4.1969969      0              58.760551      2109.8185    
   1539000   292.12582     -5.3193391      0              55.814467      2184.1419    
   1540000   303.27022     -3.6373676      0              59.828652      2147.0073    
   1541000   312.19808     -4.6259333      0              60.708438      2152.9197    
   1542000   292.89579     -4.689134       0              56.605805      2065.6605    
   1543000   294.81969     -4.1780488      0              57.51951       2032.8476    
   1544000   298.89818     -4.8149321      0              57.736141      2025.4299    
   1545000   298.59198     -5.5762477      0              56.910746      2091.7258    
   1546000   300.26441     -4.634667       0              58.20232       2035.58      
   1547000   291.86808     -4.0901736      0              56.989695      2063.4598    
   1548000   289.39941     -3.9521285      0              56.611116      2139.5504    
   1549000   305.30347     -3.5603709      0              60.33115       2103.3644    
   1550000   298.48407     -4.2125482      0              58.251862      2052.8391    
   1551000   307.44604     -4.6366793      0              59.703222      2126.5897    
   1552000   297.15657     -2.8312197      0              59.355381      2152.3322    
   1553000   295.82408     -4.2221281      0              57.68562       2186.1837    
   1554000   302.91682     -5.8314918      0              57.56057       2058.9156    
   1555000   307.77774     -4.9960722      0              59.413245      2122.7387    
   1556000   308.15203     -6.4892637      0              57.998382      2080.3938    
   1557000   292.63226     -3.8868952      0              57.352894      2028.8061    
   1558000   303.35598     -4.690245       0              58.793722      2037.8847    
   1559000   294.09831     -5.3089988      0              56.237593      2050.6099    
   1560000   295.32665     -3.9331604      0              57.870489      2025.4278    
   1561000   294.90078     -3.9361277      0              57.7784        2100.9895    
   1562000   306.23403     -4.0072971      0              60.078965      2165.9382    
   1563000   299.87627     -4.7157448      0              58.040014      2068.9237    
   1564000   283.80446     -5.2101051      0              54.182272      2119.0977    
   1565000   286.45599     -6.5813275      0              53.36594       1992.0051    
   1566000   296.66401     -3.4949256      0              58.588597      2159.6412    
   1567000   296.41287     -5.3736487      0              56.657318      2056.4661    
   1568000   298.04223     -6.0417975      0              56.330148      2041.8091    
   1569000   298.18537     -3.0577875      0              59.344113      2173.2621    
   1570000   310.25074     -4.0944272      0              60.832419      2055.1859    
   1571000   295.41453     -6.2573607      0              55.56468       2039.7601    
   1572000   295.4688      -3.5561743      0              58.277223      2103.5659    
   1573000   299.54895     -2.8197098      0              59.867551      2110.3433    
   1574000   304.67104     -4.4386556      0              59.320515      2103.6559    
   1575000   293.71383     -4.3660436      0              57.100089      2067.2913    
   1576000   303.52422     -3.057188       0              60.461985      2143.6302    
   1577000   296.09246     -5.6955614      0              56.268351      1934.0866    
   1578000   293.34513     -3.8839092      0              57.505065      2135.6842    
   1579000   300.93273     -4.8858481      0              58.090999      2126.8672    
   1580000   300.83896     -3.8007481      0              59.156475      2105.3643    
   1581000   307.64248     -4.2302416      0              60.15077       2057.1013    
   1582000   297.16026     -3.0218452      0              59.165529      2149.0714    
   1583000   293.68153     -4.8630965      0              56.596276      2126.2918    
   1584000   294.61531     -1.5712933      0              60.083494      2217.9695    
   1585000   297.62751     -4.8682806      0              57.416876      1995.6494    
   1586000   304.08191     -3.925877       0              59.710006      2188.445     
   1587000   300.83522     -3.8299415      0              59.126499      2112.4872    
   1588000   297.38459     -5.6094003      0              56.62492       2052.2732    
   1589000   302.61352     -3.9565453      0              59.372044      2152.0862    
   1590000   305.96669     -4.7575393      0              59.272775      1994.7626    
   1591000   292.46256     -4.9671088      0              56.237167      1959.0125    
   1592000   305.36533     -3.9526553      0              59.951811      2070.7647    
   1593000   306.64494     -5.225888       0              58.946365      2068.6502    
   1594000   294.71372     -6.2816727      0              55.393708      1993.6172    
   1595000   298.73398     -4.718269       0              57.798441      2133.8334    
   1596000   299.99467     -4.172734       0              58.607803      2007.6621    
   1597000   292.29023     -3.3462288      0              57.821983      2083.8104    
   1598000   306.04636     -4.4091241      0              59.637864      2033.749     
   1599000   298.46515     -4.3834402      0              58.07701       2105.9717    
   1600000   294.99949     -4.2199572      0              57.515228      2123.2003    
   1601000   295.92219     -4.8160842      0              57.112196      2099.924     
   1602000   299.96899     -5.0202546      0              57.754909      2076.0586    
   1603000   294.37364     -4.6092171      0              56.994994      2052.1555    
   1604000   311.63304     -4.8284311      0              60.387692      2072.661     
   1605000   307.42567     -3.4462493      0              60.88939       2115.3693    
   1606000   309.0404      -4.7322951      0              59.941262      2186.1076    
   1607000   301.87275     -4.4927433      0              58.680825      2075.5382    
   1608000   311.87662     -5.1637005      0              60.103399      2084.4232    
   1609000   298.22806     -5.043034       0              57.367801      2018.4054    
   1610000   293.72989     -3.0809475      0              58.388546      2151.2146    
   1611000   298.99769     -5.7273606      0              56.844537      2148.9474    
   1612000   300.56382     -5.5239033      0              57.375741      2149.8526    
   1613000   302.15262     -6.5304848      0              56.701651      2092.7992    
   1614000   301.36477     -4.6369487      0              58.430313      1995.7365    
   1615000   292.04881     -4.3095845      0              56.808105      2045.0256    
   1616000   302.45105     -4.3878234      0              58.906765      1959.2275    
   1617000   299.51513     -4.4350639      0              58.245118      2085.587     
   1618000   299.71865     -3.36758        0              59.355193      2171.1559    
   1619000   307.20732     -5.0915179      0              59.198427      2063.3803    
   1620000   306.71498     -4.3677543      0              59.819156      2119.5458    
   1621000   297.66189     -3.6278222      0              58.66453       2124.5923    
   1622000   304.99376     -4.7816243      0              59.045082      1995.9493    
   1623000   294.35159     -3.2146061      0              58.38499       2182.6414    
   1624000   295.56584     -4.0062331      0              57.847474      2073.2575    
   1625000   300.83636     -3.7937321      0              59.162947      2119.9137    
   1626000   302.07465     -4.0441102      0              59.171708      2128.5047    
   1627000   304.44259     -5.2184219      0              58.49294       2056.238     
   1628000   306.77346     -4.4408585      0              59.758291      1985.642     
   1629000   282.97873     -2.6683726      0              56.551203      2101.0383    
   1630000   307.51436     -3.8873454      0              60.466854      2126.1825    
   1631000   295.14299     -3.8634938      0              57.901721      2196.9112    
   1632000   300.22563     -6.5325746      0              56.296295      2062.292     
   1633000   301.06997     -5.7106753      0              57.294892      1990.6364    
   1634000   292.31548     -5.2387014      0              55.934796      2034.81      
   1635000   293.77957     -5.1468501      0              56.333038      2030.1021    
   1636000   306.63299     -4.6802951      0              59.489458      2079.765     
   1637000   299.01028     -4.3691269      0              58.205404      2095.1878    
   1638000   308.49959     -4.3434609      0              60.21692       2083.8454    
   1639000   288.85532     -3.8633029      0              56.586078      2078.9575    
   1640000   306.21671     -5.1347097      0              58.947927      2042.9586    
   1641000   296.15924     -4.5104422      0              57.467445      2112.4841    
   1642000   309.77876     -3.8758954      0              60.952179      2117.1169    
   1643000   301.53677     -5.0542956      0              58.048961      2058.1162    
   1644000   298.63737     -4.2631         0              58.233392      2120.289     
   1645000   306.52207     -4.9936925      0              59.152847      2144.9252    
   1646000   296.27007     -5.3065643      0              56.694517      2060.2209    
   1647000   287.27773     -6.4977602      0              53.621475      1963.4062    
   1648000   309.00377     -4.8175293      0              59.848361      2051.7866    
   1649000   307.36245     -6.2542712      0              58.068137      2017.7297    
   1650000   311.28714     -3.2695109      0              61.874225      2143.5712    
   1651000   297.9612      -5.1796773      0              57.175312      2138.1271    
   1652000   301.39662     -3.2252146      0              59.848712      2155.1117    
   1653000   300.00839     -5.0714784      0              57.711931      2091.9855    
   1654000   301.39522     -2.8500284      0              60.223605      2181.3871    
   1655000   295.33456     -4.2027185      0              57.602587      2065.294     
   1656000   298.97876     -6.0551267      0              56.512809      1987.4877    
   1657000   296.61166     -4.6983473      0              57.374219      2016.8522    
   1658000   305.67209     -5.815308       0              58.153355      2052.6988    
   1659000   291.34485     -4.1387925      0              56.831578      2091.2003    
   1660000   296.06739     -5.3631674      0              56.595499      2097.4157    
   1661000   309.77024     -5.6065527      0              59.21974       2149.8562    
   1662000   302.9556      -5.1588776      0              58.2413        2030.2542    
   1663000   305.80661     -6.3299576      0              57.666857      2013.0487    
   1664000   296.50517     -5.5338855      0              56.516397      2106.882     
   1665000   291.56105     -4.5596996      0              56.455915      2124.8369    
   1666000   303.90119     -3.6604813      0              59.937581      2065.9153    
   1667000   297.68034     -4.4361564      0              57.860056      2119.4967    
   1668000   302.14424     -4.6402859      0              58.590096      2136.5281    
   1669000   281.18577     -4.0980969      0              54.74626       2058.7114    
   1670000   303.50055     -4.9351439      0              58.579075      1961.2315    
   1671000   300.14015     -2.3733512      0              60.43763       2187.5635    
   1672000   300.7786      -5.0294239      0              57.915168      2072.9759    
   1673000   296.39155     -5.0301834      0              56.99632       2011.3459    
   1674000   305.94054     -5.4662684      0              58.558573      2133.7732    
   1675000   305.66815     -4.4773803      0              59.490458      2138.1562    
   1676000   303.99215     -5.0608472      0              58.55625       2093.7368    
   1677000   302.28001     -3.262973       0              59.995822      2179.9053    
   1678000   306.71837     -4.4474248      0              59.740196      2032.4428    
   1679000   292.38328     -2.9318488      0              58.255835      2125.8308    
   1680000   303.68171     -5.4847357      0              58.067396      2040.3238    
   1681000   307.1599      -4.21968        0              60.060341      2156.3631    
   1682000   305.90477     -4.5389045      0              59.478452      2083.7297    
   1683000   294.04058     -4.6578789      0              56.876633      2095.0622    
   1684000   293.13874     -5.4607009      0              55.88508       2004.7112    
   1685000   304.65629     -5.7859116      0              57.970173      2119.2912    
   1686000   296.83696     -6.1671349      0              55.952582      2063.3151    
   1687000   308.71923     -4.5443168      0              60.062029      2138.251     
   1688000   292.49139     -5.7178788      0              55.49243       2141.822     
   1689000   303.10443     -4.826401       0              58.604923      2016.7806    
   1690000   293.88194     -4.682653       0              56.81866       2055.4664    
   1691000   300.16282     -5.0506889      0              57.765037      2103.9839    
   1692000   310.1478      -5.546259       0              59.359045      2021.3541    
   1693000   306.39171     -3.933705       0              60.185554      2129.6947    
   1694000   303.90203     -4.3271177      0              59.27112       2062.282     
   1695000   291.80112     -4.6799779      0              56.385876      2068.4082    
   1696000   306.42828     -5.026269       0              59.100643      2111.8607    
   1697000   308.66691     -3.9201129      0              60.675283      2014.8575    
   1698000   293.58421     -3.3684655      0              58.070541      2098.9952    
   1699000   287.51497     -3.979562       0              56.189321      2075.2912    
   1700000   298.16865     -4.4179824      0              57.98042       2028.4147    
   1701000   300.14335     -5.549273       0              57.262378      2111.5814    
   1702000   295.33231     -4.0084626      0              57.796373      2183.6536    
   1703000   305.08096     -5.1061901      0              58.738766      2138.362     
   1704000   288.75187     -4.5067263      0              55.921006      2157.9365    
   1705000   286.89893     -4.6348817      0              55.405082      2063.4043    
   1706000   307.99732     -6.0591637      0              58.396106      2097.212     
   1707000   313.03961     -3.0494728      0              62.461007      2196.3935    
   1708000   306.49261     -3.9819432      0              60.158432      2166.645     
   1709000   301.58443     -4.7229356      0              58.390294      2023.1472    
   1710000   304.09696     -4.2109832      0              59.428048      2065.3354    
   1711000   314.29228     -3.6373116      0              62.135318      2071.2205    
   1712000   294.69439     -5.0319728      0              56.639362      2095.8086    
   1713000   297.98868     -4.9706732      0              57.390066      2110.0402    
   1714000   308.00826     -5.0566385      0              59.40092       2142.8127    
   1715000   301.05425     -2.9365107      0              60.065766      2149.2691    
   1716000   291.8506      -4.8326978      0              56.243511      2129.3407    
   1717000   289.18672     -4.8959915      0              55.622741      2042.8781    
   1718000   299.17174     -4.3959667      0              58.212355      2122.7327    
   1719000   306.52213     -5.6317218      0              58.514831      2050.8736    
   1720000   299.44101     -4.7515761      0              57.913095      2046.7288    
   1721000   298.06679     -5.9638304      0              56.413256      2032.7374    
   1722000   299.20182     -4.214956       0              58.399659      2223.0306    
   1723000   299.04841     -5.7317629      0              56.850749      2084.5459    
   1724000   302.23569     -6.1718216      0              57.077698      2024.1166    
   1725000   291.95062     -5.7897933      0              55.307347      2049.833     
   1726000   298.69291     -4.8815123      0              57.626603      2095.4042    
   1727000   308.222       -5.4318077      0              59.070482      2017.6541    
   1728000   302.61311     -5.5789322      0              57.749572      2071.4061    
   1729000   302.87826     -3.8233318      0              59.56066       2135.2974    
   1730000   303.38967     -3.8488861      0              59.64213       2104.8146    
   1731000   310.2444      -4.2346376      0              60.690882      2044.1025    
   1732000   306.00443     -2.4985521      0              61.539661      2203.491     
   1733000   307.37914     -3.7955064      0              60.530395      2121.3178    
   1734000   298.03059     -4.4348187      0              57.934691      2172.7496    
   1735000   298.76736     -5.8985042      0              56.625192      1979.6582    
   1736000   309.87577     -5.3283013      0              59.520075      2151.9629    
   1737000   296.37512     -4.4419394      0              57.581127      2013.6529    
   1738000   303.55866     -4.5095542      0              59.016827      2042.3088    
   1739000   295.83716     -6.1151344      0              55.795351      2040.0675    
   1740000   298.21446     -4.537288       0              57.870701      1993.1297    
   1741000   304.68271     -5.7161959      0              58.045417      2062.6055    
   1742000   296.26593     -3.8587178      0              58.141498      2158.7458    
   1743000   301.41697     -3.1438235      0              59.934362      2113.1905    
   1744000   295.15168     -4.1168415      0              57.650193      2155.6736    
   1745000   305.35408     -5.2065282      0              58.695583      2051.2034    
   1746000   295.41966     -4.3420459      0              57.481069      2036.0107    
   1747000   296.93114     -3.6314734      0              58.507952      2132.1451    
   1748000   306.95742     -4.224148       0              60.013499      2140.2088    
   1749000   292.08212     -5.7568201      0              55.36784       2065.0685    
   1750000   298.79432     -3.9609207      0              58.568417      2032.3475    
   1751000   297.68986     -4.0079892      0              58.290216      2106.3139    
   1752000   306.70056     -5.3956211      0              58.788271      2047.5703    
   1753000   303.09486     -4.491573       0              58.937748      2048.875     
   1754000   292.6639      -5.9460993      0              55.300312      2030.0655    
   1755000   305.73766     -4.9237119      0              59.058673      2063.5144    
   1756000   297.82192     -5.2971552      0              57.028686      2024.5312    
   1757000   313.88238     -6.0354874      0              59.651361      2075.5647    
   1758000   301.79013     -4.5538531      0              58.602424      2072.4244    
   1759000   302.91995     -4.9605181      0              58.432199      2019.87      
   1760000   307.11103     -5.9050119      0              58.364781      2189.1272    
   1761000   301.80227     -4.9871354      0              58.171682      2137.5164    
   1762000   302.3941      -4.0953857      0              59.187285      2204.5452    
   1763000   310.79106     -5.603211       0              59.436711      2052.4474    
   1764000   294.78998     -4.7782266      0              56.913114      2071.8978    
   1765000   316.33959     -4.8628765      0              61.338196      2114.8954    
   1766000   294.47317     -4.2426219      0              57.382418      2136.573     
   1767000   296.93414     -5.3504798      0              56.789574      2144.6895    
   1768000   301.74086     -6.4193631      0              56.726603      2086.81      
   1769000   305.49568     -5.6700782      0              58.261668      2067.4437    
   1770000   292.36572     -3.0359369      0              58.148072      2174.0423    
   1771000   306.47815     -4.2375936      0              59.899755      2142.3243    
   1772000   297.62423     -5.4774916      0              56.806978      2071.8362    
   1773000   285.38695     -4.7414712      0              54.982076      2038.0749    
   1774000   300.24285     -6.598474       0              56.234         2033.4841    
   1775000   302.79511     -5.8456812      0              57.520911      2112.9255    
   1776000   299.598       -4.9672805      0              57.730244      2144.2786    
   1777000   300.2693      -4.4996683      0              58.338341      2186.8157    
   1778000   297.17719     -4.2237895      0              57.967126      2111.1782    
   1779000   286.8587      -4.2593797      0              55.772165      2167.9581    
   1780000   312.32658     -4.8451319      0              60.516131      2108.315     
   1781000   293.30106     -5.0431106      0              56.336641      2095.5871    
   1782000   313.00458     -4.6684169      0              60.834732      2018.8088    
   1783000   302.83608     -5.3864197      0              57.988745      2112.5199    
   1784000   304.64172     -3.2309309      0              60.522105      2124.3015    
   1785000   302.66258     -1.9304021      0              61.408454      2210.3156    
   1786000   297.12174     -4.0372638      0              58.142048      1996.8264    
   1787000   297.51603     -6.4801309      0              55.781696      2002.667     
   1788000   305.23792     -5.4516878      0              58.426116      2126.4513    
   1789000   308.73606     -6.4900214      0              58.119845      2064.9655    
   1790000   312.56932     -3.7790575      0              61.633004      2164.2075    
   1791000   306.53035     -3.5415579      0              60.606714      2206.3606    
   1792000   299.23097     -7.1906514      0              55.430064      2045.6626    
   1793000   299.03623     -4.7592135      0              57.82075       2136.4884    
   1794000   302.20929     -3.7296898      0              59.514306      2097.7513    
   1795000   288.38248     -3.855007       0              56.495422      2133.1733    
   1796000   306.02816     -6.6078056      0              57.435373      2147.8343    
   1797000   297.36027     -4.6749211      0              57.55431       2089.6874    
   1798000   295.40188     -4.8478107      0              56.971582      2070.1718    
   1799000   299.46706     -4.129027       0              58.541095      2079.009     
   1800000   310.25044     -3.5505698      0              61.376215      2110.5605    
   1801000   301.48566     -3.5750773      0              59.517482      2084.0523    
   1802000   303.59737     -5.6173915      0              57.91709       2078.2552    
   1803000   298.90583     -4.3048069      0              58.247866      2140.8572    
   1804000   313.09853     -4.6893215      0              60.833489      2127.2961    
   1805000   304.04948     -5.7929365      0              57.836159      2137.2317    
   1806000   293.82319     -5.0189444      0              56.470074      2018.0205    
   1807000   304.1767      -3.4184487      0              60.237271      2195.9483    
   1808000   298.32471     -6.4449379      0              55.986123      1953.7449    
   1809000   305.5892      -5.2320251      0              58.719291      1982.5165    
   1810000   296.58237     -4.7585472      0              57.30789       1953.2033    
   1811000   298.60284     -5.2413742      0              57.247892      2052.3874    
   1812000   305.92585     -5.1668274      0              58.85494       2132.2933    
   1813000   301.79493     -3.8519641      0              59.305317      2149.6833    
   1814000   299.65103     -4.5168988      0              58.191724      2142.6787    
   1815000   292.4566      -5.1480293      0              56.055         1971.4651    
   1816000   288.84177     -3.8493048      0              56.59724       2114.0887    
   1817000   312.85922     -5.2777447      0              60.194984      2082.647     
   1818000   293.06593     -3.9160636      0              57.414482      2054.3401    
   1819000   297.56822     -4.8474059      0              57.425344      2058.3121    
   1820000   296.59349     -3.6283515      0              58.440414      2070.9629    
   1821000   298.25215     -4.7726117      0              57.643265      2061.6633    
   1822000   307.26201     -3.9519248      0              60.349464      2085.3015    
   1823000   300.97757     -4.2687948      0              58.717437      2054.4176    
   1824000   297.51874     -4.979848       0              57.282546      2041.4993    
   1825000   304.43449     -3.9172206      0              59.792447      2092.0505    
   1826000   313.90015     -6.2003271      0              59.49024       2158.698     
   1827000   294.03701     -3.4306259      0              58.103139      2240.6877    
   1828000   301.9461      -4.3540644      0              58.834852      2096.6483    
   1829000   297.34547     -6.4202586      0              55.805875      2066.2797    
   1830000   298.29484     -5.2885111      0              57.136299      2144.9305    
   1831000   284.23057     -4.4362185      0              55.045331      2031.7758    
   1832000   302.12289     -3.716027       0              59.509887      2144.0111    
   1833000   309.02342     -4.9872928      0              59.682711      1969.145     
   1834000   292.66546     -5.5122039      0              55.734533      1936.0834    
   1835000   307.74373     -6.1682829      0              58.233917      1999.2251    
   1836000   298.89388     -5.4823749      0              57.067798      2013.6347    
   1837000   295.76275     -5.2601805      0              56.634733      2059.5692    
   1838000   304.77898     -4.4617441      0              59.320016      2117.8056    
   1839000   299.17346     -4.6367618      0              57.97192       2140.7148    
   1840000   292.42075     -4.172857       0              57.02267       2075.6786    
   1841000   299.60034     -4.2502827      0              58.447733      2143.5569    
   1842000   295.44775     -4.2736247      0              57.555368      2117.3593    
   1843000   305.21127     -4.1618976      0              59.710328      2054.9311    
   1844000   299.59814     -4.1697313      0              58.527824      2124.8117    
   1845000   305.84683     -4.8190072      0              59.186225      2121.8254    
   1846000   295.80652     -4.2407622      0              57.663312      2041.5922    
   1847000   309.68663     -5.3815502      0              59.427244      2086.6977    
   1848000   289.31511     -7.370328       0              53.175274      1990.5253    
   1849000   302.73266     -4.6657908      0              58.68773       2202.7835    
   1850000   302.51382     -5.4892304      0              57.818494      2091.968     
   1851000   299.14849     -3.6122968      0              58.991159      2199.6158    
   1852000   296.14487     -4.0187736      0              57.956107      2116.8095    
   1853000   298.13345     -4.354729       0              58.036306      2042.5559    
   1854000   303.86929     -4.5141046      0              59.077283      2054.2785    
   1855000   296.41232     -4.7999203      0              57.230931      2027.5259    
   1856000   301.48011     -4.9908271      0              58.100572      2128.1402    
   1857000   298.08135     -3.9739134      0              58.406218      2106.5778    
   1858000   295.35832     -4.5213954      0              57.288882      2052.9928    
   1859000   294.16959     -6.3685885      0              55.192921      1967.3464    
   1860000   311.95492     -3.8992867      0              61.384198      2148.271     
   1861000   296.35711     -5.236593       0              56.782704      2031.3711    
   1862000   289.7709      -4.4885513      0              56.152434      2036.9328    
   1863000   301.27198     -3.0432959      0              60.004546      2046.0585    
   1864000   296.55657     -3.4469442      0              58.614094      2200.6374    
   1865000   295.96759     -3.424355       0              58.513427      2136.6327    
   1866000   312.68114     -4.9864515      0              60.449011      2081.617     
   1867000   297.44758     -5.1063332      0              57.141168      2092.3836    
   1868000   299.3709      -5.7529582      0              56.897042      2054.253     
   1869000   299.03964     -4.1399895      0              58.440687      2155.303     
   1870000   294.24538     -4.4993305      0              57.07804       2107.1444    
   1871000   296.63843     -4.1404114      0              57.937759      2086.4027    
   1872000   296.66025     -4.9622604      0              57.120476      2086.7379    
   1873000   293.29302     -3.0947821      0              58.283286      2214.4212    
   1874000   290.23997     -4.3706456      0              56.368504      1980.6125    
   1875000   283.36548     -5.8147122      0              53.485797      2012.121     
   1876000   300.78722     -5.7231441      0              57.223251      2057.9032    
   1877000   314.58936     -3.9403627      0              61.894436      2228.162     
   1878000   310.18635     -3.7226929      0              61.19068       2058.896     
   1879000   310.21942     -5.0915202      0              59.828773      2049.1217    
   1880000   301.09658     -5.1413809      0              57.869756      2092.3944    
   1881000   283.43692     -5.2703041      0              54.045156      2163.8422    
   1882000   297.124       -3.6215443      0              58.558241      2100.4752    
   1883000   297.44183     -3.0252905      0              59.221009      2219.6653    
   1884000   302.33105     -4.2480428      0              59.021434      2136.0024    
   1885000   302.81611     -5.4931195      0              57.877866      2173.5988    
   1886000   301.72934     -5.9193093      0              57.224247      2109.2508    
   1887000   299.06179     -4.8225056      0              57.762806      2192.1416    
   1888000   291.70786     -5.3480653      0              55.698272      2017.9433    
   1889000   301.51258     -4.9090831      0              58.18911       2154.5246    
   1890000   310.04737     -4.450052       0              60.434236      2104.8781    
   1891000   306.30888     -4.6857605      0              59.416166      2205.6021    
   1892000   294.8561      -3.9126441      0              57.792533      2106.5423    
   1893000   300.7222      -4.5066912      0              58.426098      2101.8948    
   1894000   291.15998     -4.8471075      0              56.084574      1956.0099    
   1895000   297.47994     -4.7186804      0              57.535593      2050.1345    
   1896000   292.56835     -3.8269036      0              57.39951       2100.7531    
   1897000   302.1171      -3.6440607      0              59.580643      2153.0993    
   1898000   302.87892     -4.8125008      0              58.57163       2103.2993    
   1899000   289.01422     -5.4065583      0              55.076075      2000.7595    
   1900000   300.18544     -2.9926738      0              59.827786      2191.8616    
   1901000   307.87164     -4.6846818      0              59.744285      2188.885     
   1902000   301.40798     -4.5682192      0              58.508085      2146.5993    
   1903000   292.45333     -4.8208799      0              56.381464      2105.9776    
   1904000   295.10364     -2.3993733      0              59.357607      2117.804     
   1905000   301.7362      -6.3872646      0              56.757727      2053.0713    
   1906000   302.56053     -4.8206469      0              58.496853      2027.9266    
   1907000   300.28618     -6.0555633      0              56.785979      1927.302     
   1908000   301.77466     -4.7272883      0              58.425751      2128.5774    
   1909000   297.20734     -4.1994737      0              57.997752      2088.1134    
   1910000   298.17794     -5.0042614      0              57.396085      2092.6138    
   1911000   304.03924     -5.3785256      0              58.248427      2010.0597    
   1912000   301.43493     -4.9378179      0              58.144126      2071.147     
   1913000   304.00836     -4.5423886      0              59.078102      2140.2142    
   1914000   282.47143     -4.1836024      0              54.929808      2062.4583    
   1915000   301.22932     -4.3363631      0              58.702551      2147.0502    
   1916000   301.6074      -6.9414168      0              56.17662       2101.9929    
   1917000   297.90825     -4.3257136      0              58.018193      2119.1872    
   1918000   301.78388     -5.1129156      0              58.042053      2031.9839    
   1919000   299.48744     -5.4018458      0              57.272542      2059.3428    
   1920000   297.13941     -5.1728168      0              57.010193      1940.1385    
   1921000   307.38825     -4.4974345      0              59.830374      2093.2175    
   1922000   307.09173     -2.2629854      0              62.002769      2183.4765    
   1923000   296.85308     -5.0369313      0              57.086159      2070.4401    
   1924000   295.56226     -3.9039786      0              57.948979      2106.6005    
   1925000   297.61608     -4.7514347      0              57.53133       2075.6218    
   1926000   308.73543     -5.5698206      0              59.039913      2050.2984    
   1927000   295.51356     -5.4439499      0              56.398815      2034.2088    
   1928000   301.5801      -5.764838       0              57.347484      2002.0934    
   1929000   305.114       -3.4585759      0              60.393295      2158.2177    
   1930000   304.65909     -6.2570841      0              57.499586      2103.1508    
   1931000   288.49147     -4.1348809      0              56.238356      2095.2721    
   1932000   300.71182     -3.4650185      0              59.465599      2202.4669    
   1933000   304.41164     -4.303512       0              59.401373      2157.2667    
   1934000   296.58664     -3.8726409      0              58.19469       2098.0396    
   1935000   300.49787     -4.9156568      0              57.970186      1985.1366    
   1936000   306.62844     -5.0379392      0              59.130862      2007.5723    
   1937000   301.7958      -3.6389079      0              59.518556      2095.1673    
   1938000   310.93758     -3.9434536      0              61.12713       2149.0812    
   1939000   289.23865     -4.7788384      0              55.750762      2174.7862    
   1940000   302.15234     -5.5526198      0              57.679459      2088.1598    
   1941000   304.30728     -4.7447565      0              58.938289      1976.4237    
   1942000   302.83886     -5.9552326      0              57.420515      2099.8382    
   1943000   303.04623     -3.8548785      0              59.564265      2120.0261    
   1944000   296.00934     -5.8920093      0              56.054509      1981.2062    
   1945000   289.47703     -5.3849247      0              55.194564      1951.5926    
   1946000   309.5807      -4.2763428      0              60.510283      2275.0463    
   1947000   298.16165     -3.6673203      0              58.729617      2218.3429    
   1948000   301.106       -3.6370325      0              59.376074      2107.7808    
   1949000   306.83188     -1.4307945      0              62.780579      2295.1676    
   1950000   297.89019     -3.0709865      0              59.269142      2174.4908    
   1951000   297.50834     -4.3343549      0              57.925862      2127.6956    
   1952000   303.57195     -3.7908806      0              59.738281      2158.3479    
   1953000   304.17494     -4.8370114      0              58.818341      2090.5349    
   1954000   297.70059     -3.010967       0              59.289484      2235.8788    
   1955000   304.52097     -4.1761977      0              59.551569      2191.4168    
   1956000   300.80517     -4.9706541      0              57.979498      2058.169     
   1957000   298.032       -5.9078361      0              56.461968      2207.9181    
   1958000   309.67071     -3.6885627      0              61.1169        2137.0127    
   1959000   289.41148     -6.3523043      0              54.213466      2081.1792    
   1960000   307.64247     -4.2492081      0              60.131802      2153.528     
   1961000   296.98768     -5.6154994      0              56.535759      2079.5257    
   1962000   299.63393     -4.7448665      0              57.960177      2019.8577    
   1963000   308.22286     -3.0777148      0              61.424753      2191.6429    
   1964000   291.21161     -3.0545196      0              57.887967      2231.6592    
   1965000   290.89827     -5.0957507      0              55.781164      1952.3772    
   1966000   311.32159     -3.9764966      0              61.174449      2045.6212    
   1967000   298.69748     -4.6964458      0              57.812626      2019.5802    
   1968000   305.64885     -4.3278558      0              59.635945      2153.4905    
   1969000   300.62946     -5.5772194      0              57.336162      2018.2732    
   1970000   295.40311     -5.2913035      0              56.528348      2146.792     
   1971000   299.95043     -6.5315517      0              56.239727      2016.4201    
   1972000   298.0326      -6.3736942      0              55.996236      1995.1195    
   1973000   290.29793     -4.3681016      0              56.383177      2033.8802    
   1974000   298.1738      -3.8307172      0              58.568762      2119.3572    
   1975000   298.35784     -3.9631301      0              58.474865      2180.9948    
   1976000   292.98318     -5.3614399      0              55.951787      2012.7682    
   1977000   306.88518     -4.7042819      0              59.518247      2037.6365    
   1978000   317.8822      -4.4277938      0              62.096106      2167.4207    
   1979000   300.52884     -4.9216932      0              57.970631      2098.3397    
   1980000   307.70033     -5.917798       0              58.47532       2073.1834    
   1981000   291.72901     -4.0761411      0              56.974623      2111.5688    
   1982000   302.97544     -4.4987561      0              58.905573      2124.5834    
   1983000   298.83731     -5.7681921      0              56.770142      1975.5701    
   1984000   308.15655     -5.0144472      0              59.474144      2044.9296    
   1985000   301.91547     -5.1679553      0              58.014551      2099.6291    
   1986000   293.16901     -3.8375365      0              57.514581      2164.9502    
   1987000   303.04953     -4.0569879      0              59.362847      2138.247     
   1988000   299.39633     -5.3584906      0              57.296831      2107.8748    
   1989000   302.83714     -3.8865727      0              59.488814      2115.675     
   1990000   308.58846     -5.1564033      0              59.422574      2015.4528    
   1991000   307.42694     -4.8581161      0              59.477788      2176.5669    
   1992000   305.35658     -5.6745507      0              58.228084      2153.5349    
   1993000   291.94017     -4.3861452      0              56.70881       2081.192     
   1994000   295.91238     -7.236206       0              54.69002       1929.7277    
   1995000   297.0843      -4.4277528      0              57.743724      1993.653     
   1996000   298.07458     -4.4361001      0              57.942615      2043.9114    
   1997000   297.59124     -3.8827063      0              58.39486       2100.7792    
   1998000   300.50137     -4.3907719      0              58.495804      2036.7896    
   1999000   307.67631     -4.1251048      0              60.262986      2069.0626    
   2000000   302.21155     -3.9578733      0              59.286595      2102.1491    
   2000101   297.68957     -3.5580457      0              58.740098      2144.7937    
Loop time of 14055.3 on 16 procs for 2000000 steps with 1620 atoms

Performance: 6.147 ns/day, 3.904 hours/ns, 142.295 timesteps/s
99.9% CPU use with 16 MPI tasks x 1 OpenMP threads

MPI task timing breakdown:
Section |  min time  |  avg time  |  max time  |%varavg| %total
---------------------------------------------------------------
Pair    | 11054      | 11920      | 13151      | 609.0 | 84.81
Bond    | 1.5461     | 1.6047     | 1.6582     |   2.4 |  0.01
Neigh   | 16.171     | 16.673     | 17.126     |   9.7 |  0.12
Comm    | 831.36     | 2061.8     | 2928.4     |1465.0 | 14.67
Output  | 1.1688     | 1.1693     | 1.1714     |   0.1 |  0.01
Modify  | 28.229     | 28.798     | 29.173     |   4.6 |  0.20
Other   |            | 24.8       |            |       |  0.18

Nlocal:         101.25 ave         109 max          95 min
Histogram: 3 0 2 2 1 4 1 1 1 1
Nghost:           5075 ave        5116 max        5022 min
Histogram: 1 0 1 1 3 3 4 0 1 2
Neighs:        51676.2 ave       57896 max       45365 min
Histogram: 2 0 4 0 1 4 0 1 3 1

Total # of neighbors = 826819
Ave neighs/atom = 510.3821
Ave special neighs/atom = 0
Neighbor list builds = 10397
Dangerous builds = 0
comm_modify cutoff 27.58
compute myRDF all rdf 1129 cutoff 22.58
fix 2 all ave/time 1 1 1 c_myRDF[*] file ljg2_nvt_43rdf.rdf mode vector
run 0 pre yes post no
Generated 0 of 0 mixed pair_coeff terms from geometric mixing rule
WARNING: Compute rdf cutoff less than neighbor cutoff - forcing a needless neighbor list build (src/compute_rdf.cpp:179)
Neighbor list info ...
  update every 1 steps, delay 0 steps, check yes
  max neighbors/atom: 200000, page size: 2000000000
  master list distance cutoff = 27
  ghost atom cutoff = 27.58
  binsize = 13.5, bins = 4 5 4
  4 neighbor lists, perpetual/occasional/extra = 3 1 0
  (1) pair lj/cut, perpetual
      attributes: half, newton on
      pair build: half/bin/newton
      stencil: half/bin/3d
      bin: standard
  (2) pair gauss/cut, perpetual, copy from (1)
      attributes: half, newton on
      pair build: copy
      stencil: none
      bin: none
  (3) pair gauss/cut, perpetual, copy from (1)
      attributes: half, newton on
      pair build: copy
      stencil: none
      bin: none
  (4) compute rdf, occasional
      attributes: half, newton on, cut 24.58
      pair build: half/bin/newton
      stencil: half/bin/3d
      bin: standard
Per MPI rank memory allocation (min/avg/max) = 3.053e+04 | 3.053e+04 | 3.053e+04 Mbytes
   Step          Temp          E_pair         E_mol          TotEng         Press     
   2000101   297.68957     -3.5580457      0              58.740098      2144.7937    
Loop time of 4.75463e-06 on 16 procs for 0 steps with 1620 atoms

uncompute myRDF
unfix 2
write_data ljg2_nvt_43/ca_md.data nocoeff nofix
System init for write_data ...
Generated 0 of 0 mixed pair_coeff terms from geometric mixing rule
Neighbor list info ...
  update every 1 steps, delay 0 steps, check yes
  max neighbors/atom: 200000, page size: 2000000000
  master list distance cutoff = 27
  ghost atom cutoff = 27.58
  binsize = 13.5, bins = 4 5 4
  3 neighbor lists, perpetual/occasional/extra = 3 0 0
  (1) pair lj/cut, perpetual
      attributes: half, newton on
      pair build: half/bin/newton
      stencil: half/bin/3d
      bin: standard
  (2) pair gauss/cut, perpetual, copy from (1)
      attributes: half, newton on
      pair build: copy
      stencil: none
      bin: none
  (3) pair gauss/cut, perpetual, copy from (1)
      attributes: half, newton on
      pair build: copy
      stencil: none
      bin: none
Total wall time: 3:54:16
